   2   2   0   0
  0.2016476E+02  0.3849278E-09  0.3849279E-09  0.3849278E-09  0.5000000E-15
  1.000000000000000E-004
  CAR 
 Si diamond primitive cell - SCF energy  
     16.50312883     -7.23384142  301      5.82396482      1.00000000
     -7.234  0.0000E+00  0.0000E+00
     -7.155  0.0000E+00  0.0000E+00
     -7.076  0.0000E+00  0.0000E+00
     -6.996  0.0000E+00  0.0000E+00
     -6.917  0.0000E+00  0.0000E+00
     -6.838  0.0000E+00  0.0000E+00
     -6.759  0.0000E+00  0.0000E+00
     -6.680  0.0000E+00  0.0000E+00
     -6.601  0.0000E+00  0.0000E+00
     -6.522  0.0000E+00  0.0000E+00
     -6.443  0.0000E+00  0.0000E+00
     -6.363  0.0000E+00  0.0000E+00
     -6.284  0.0000E+00  0.0000E+00
     -6.205  0.0000E+00  0.0000E+00
     -6.126  0.8976E-02  0.8608E-04
     -6.047  0.1251E+00  0.4539E-02
     -5.968  0.1292E+00  0.1370E-01
     -5.889  0.1693E+00  0.2548E-01
     -5.810  0.2039E+00  0.4042E-01
     -5.730  0.2164E+00  0.5701E-01
     -5.651  0.2405E+00  0.7508E-01
     -5.572  0.2656E+00  0.9510E-01
     -5.493  0.2918E+00  0.1171E+00
     -5.414  0.3060E+00  0.1408E+00
     -5.335  0.3224E+00  0.1656E+00
     -5.256  0.3391E+00  0.1918E+00
     -5.177  0.3581E+00  0.2194E+00
     -5.098  0.3787E+00  0.2485E+00
     -5.018  0.3994E+00  0.2793E+00
     -4.939  0.4143E+00  0.3115E+00
     -4.860  0.4305E+00  0.3449E+00
     -4.781  0.4482E+00  0.3797E+00
     -4.702  0.4664E+00  0.4159E+00
     -4.623  0.4861E+00  0.4535E+00
     -4.544  0.5075E+00  0.4928E+00
     -4.465  0.5299E+00  0.5339E+00
     -4.385  0.5518E+00  0.5767E+00
     -4.306  0.5750E+00  0.6213E+00
     -4.227  0.6018E+00  0.6678E+00
     -4.148  0.6356E+00  0.7167E+00
     -4.069  0.6753E+00  0.7685E+00
     -3.990  0.7248E+00  0.8237E+00
     -3.911  0.8327E+00  0.8849E+00
     -3.832  0.8835E+00  0.9535E+00
     -3.752  0.8584E+00  0.1022E+01
     -3.673  0.9136E+00  0.1095E+01
     -3.594  0.8386E+00  0.1164E+01
     -3.515  0.8016E+00  0.1228E+01
     -3.436  0.7844E+00  0.1291E+01
     -3.357  0.7583E+00  0.1352E+01
     -3.278  0.7312E+00  0.1411E+01
     -3.199  0.7036E+00  0.1468E+01
     -3.119  0.6692E+00  0.1522E+01
     -3.040  0.6540E+00  0.1575E+01
     -2.961  0.6322E+00  0.1626E+01
     -2.882  0.6050E+00  0.1675E+01
     -2.803  0.5723E+00  0.1721E+01
     -2.724  0.5448E+00  0.1765E+01
     -2.645  0.5213E+00  0.1808E+01
     -2.566  0.5258E+00  0.1849E+01
     -2.486  0.4729E+00  0.1889E+01
     -2.407  0.4563E+00  0.1925E+01
     -2.328  0.4052E+00  0.1959E+01
     -2.249  0.2069E+00  0.1988E+01
     -2.170  0.6719E-01  0.1998E+01
     -2.091  0.5365E-02  0.2000E+01
     -2.012  0.0000E+00  0.2000E+01
     -1.933  0.5071E-02  0.2000E+01
     -1.853  0.2635E-01  0.2001E+01
     -1.774  0.5662E-01  0.2004E+01
     -1.695  0.1225E+00  0.2011E+01
     -1.616  0.2046E+00  0.2024E+01
     -1.537  0.2971E+00  0.2044E+01
     -1.458  0.5183E+00  0.2080E+01
     -1.379  0.5146E+00  0.2121E+01
     -1.300  0.5122E+00  0.2161E+01
     -1.220  0.5764E+00  0.2205E+01
     -1.141  0.6449E+00  0.2253E+01
     -1.062  0.1040E+01  0.2316E+01
     -0.983  0.1656E+01  0.2418E+01
     -0.904  0.1544E+01  0.2565E+01
     -0.825  0.1112E+01  0.2664E+01
     -0.746  0.9483E+00  0.2745E+01
     -0.667  0.8366E+00  0.2816E+01
     -0.587  0.7687E+00  0.2879E+01
     -0.508  0.7117E+00  0.2938E+01
     -0.429  0.6601E+00  0.2992E+01
     -0.350  0.6138E+00  0.3042E+01
     -0.271  0.5572E+00  0.3089E+01
     -0.192  0.5216E+00  0.3131E+01
     -0.113  0.4966E+00  0.3171E+01
     -0.034  0.4774E+00  0.3210E+01
      0.045  0.4592E+00  0.3247E+01
      0.125  0.4416E+00  0.3283E+01
      0.204  0.4232E+00  0.3317E+01
      0.283  0.4038E+00  0.3350E+01
      0.362  0.3833E+00  0.3381E+01
      0.441  0.3633E+00  0.3410E+01
      0.520  0.3431E+00  0.3438E+01
      0.599  0.3195E+00  0.3464E+01
      0.678  0.3054E+00  0.3489E+01
      0.758  0.2968E+00  0.3513E+01
      0.837  0.2884E+00  0.3536E+01
      0.916  0.2799E+00  0.3559E+01
      0.995  0.2704E+00  0.3580E+01
      1.074  0.2608E+00  0.3601E+01
      1.153  0.2513E+00  0.3622E+01
      1.232  0.2416E+00  0.3641E+01
      1.311  0.2319E+00  0.3660E+01
      1.391  0.2222E+00  0.3678E+01
      1.470  0.3018E+00  0.3696E+01
      1.549  0.6736E+00  0.3735E+01
      1.628  0.9350E+00  0.3799E+01
      1.707  0.1372E+01  0.3900E+01
      1.786  0.1193E+01  0.3996E+01
      1.865  0.1177E+01  0.4090E+01
      1.944  0.1161E+01  0.4185E+01
      2.024  0.1135E+01  0.4274E+01
      2.103  0.1022E+01  0.4360E+01
      2.182  0.9615E+00  0.4438E+01
      2.261  0.9296E+00  0.4513E+01
      2.340  0.1192E+01  0.4588E+01
      2.419  0.1061E+01  0.4678E+01
      2.498  0.1071E+01  0.4761E+01
      2.577  0.1178E+01  0.4852E+01
      2.657  0.1246E+01  0.4946E+01
      2.736  0.1303E+01  0.5050E+01
      2.815  0.1325E+01  0.5152E+01
      2.894  0.1438E+01  0.5261E+01
      2.973  0.1709E+01  0.5383E+01
      3.052  0.1544E+01  0.5505E+01
      3.131  0.1618E+01  0.5628E+01
      3.210  0.1481E+01  0.5750E+01
      3.290  0.1461E+01  0.5866E+01
      3.369  0.1443E+01  0.5981E+01
      3.448  0.1406E+01  0.6094E+01
      3.527  0.1408E+01  0.6205E+01
      3.606  0.1398E+01  0.6316E+01
      3.685  0.1374E+01  0.6426E+01
      3.764  0.1343E+01  0.6533E+01
      3.843  0.1312E+01  0.6638E+01
      3.923  0.1299E+01  0.6741E+01
      4.002  0.1307E+01  0.6844E+01
      4.081  0.1312E+01  0.6948E+01
      4.160  0.1293E+01  0.7051E+01
      4.239  0.1266E+01  0.7153E+01
      4.318  0.1229E+01  0.7251E+01
      4.397  0.1213E+01  0.7348E+01
      4.476  0.1164E+01  0.7443E+01
      4.556  0.1001E+01  0.7529E+01
      4.635  0.8336E+00  0.7601E+01
      4.714  0.7031E+00  0.7661E+01
      4.793  0.6341E+00  0.7714E+01
      4.872  0.5885E+00  0.7762E+01
      4.951  0.5134E+00  0.7806E+01
      5.030  0.4555E+00  0.7844E+01
      5.109  0.3969E+00  0.7878E+01
      5.189  0.3423E+00  0.7907E+01
      5.268  0.2924E+00  0.7932E+01
      5.347  0.2385E+00  0.7953E+01
      5.426  0.1909E+00  0.7970E+01
      5.505  0.1567E+00  0.7984E+01
      5.584  0.1360E+00  0.7995E+01
      5.663  0.2171E-01  0.7999E+01
      5.742  0.3151E-03  0.8000E+01
      5.821  0.0000E+00  0.8000E+01
      5.901  0.0000E+00  0.8000E+01
      5.980  0.0000E+00  0.8000E+01
      6.059  0.0000E+00  0.8000E+01
      6.138  0.0000E+00  0.8000E+01
      6.217  0.0000E+00  0.8000E+01
      6.296  0.0000E+00  0.8000E+01
      6.375  0.7145E-02  0.8000E+01
      6.454  0.7975E-01  0.8003E+01
      6.534  0.1277E+00  0.8012E+01
      6.613  0.1687E+00  0.8024E+01
      6.692  0.2245E+00  0.8039E+01
      6.771  0.2871E+00  0.8059E+01
      6.850  0.3442E+00  0.8084E+01
      6.929  0.4011E+00  0.8114E+01
      7.008  0.4608E+00  0.8148E+01
      7.087  0.5206E+00  0.8187E+01
      7.167  0.5860E+00  0.8230E+01
      7.246  0.6394E+00  0.8279E+01
      7.325  0.6786E+00  0.8331E+01
      7.404  0.7234E+00  0.8386E+01
      7.483  0.8010E+00  0.8447E+01
      7.562  0.8761E+00  0.8513E+01
      7.641  0.9638E+00  0.8586E+01
      7.720  0.1074E+01  0.8666E+01
      7.800  0.1234E+01  0.8757E+01
      7.879  0.1457E+01  0.8864E+01
      7.958  0.1599E+01  0.8985E+01
      8.037  0.1719E+01  0.9116E+01
      8.116  0.1945E+01  0.9262E+01
      8.195  0.2025E+01  0.9420E+01
      8.274  0.2005E+01  0.9580E+01
      8.353  0.1763E+01  0.9731E+01
      8.433  0.1359E+01  0.9857E+01
      8.512  0.1070E+01  0.9952E+01
      8.591  0.9218E+00  0.1003E+02
      8.670  0.8753E+00  0.1010E+02
      8.749  0.8244E+00  0.1017E+02
      8.828  0.7844E+00  0.1023E+02
      8.907  0.8078E+00  0.1029E+02
      8.986  0.1080E+01  0.1037E+02
      9.066  0.2057E+01  0.1049E+02
      9.145  0.2332E+01  0.1066E+02
      9.224  0.2373E+01  0.1085E+02
      9.303  0.2072E+01  0.1102E+02
      9.382  0.2052E+01  0.1119E+02
      9.461  0.1859E+01  0.1134E+02
      9.540  0.1626E+01  0.1148E+02
      9.619  0.1597E+01  0.1161E+02
      9.699  0.1532E+01  0.1173E+02
      9.778  0.1384E+01  0.1185E+02
      9.857  0.1224E+01  0.1195E+02
      9.936  0.1132E+01  0.1204E+02
     10.015  0.1096E+01  0.1213E+02
     10.094  0.1106E+01  0.1222E+02
     10.173  0.1090E+01  0.1230E+02
     10.252  0.1067E+01  0.1239E+02
     10.332  0.1067E+01  0.1247E+02
     10.411  0.1213E+01  0.1256E+02
     10.490  0.1481E+01  0.1269E+02
     10.569  0.1301E+01  0.1280E+02
     10.648  0.1260E+01  0.1290E+02
     10.727  0.1091E+01  0.1299E+02
     10.806  0.1046E+01  0.1308E+02
     10.885  0.1123E+01  0.1316E+02
     10.965  0.1182E+01  0.1325E+02
     11.044  0.1173E+01  0.1335E+02
     11.123  0.1288E+01  0.1344E+02
     11.202  0.1240E+01  0.1354E+02
     11.281  0.1169E+01  0.1364E+02
     11.360  0.1188E+01  0.1373E+02
     11.439  0.1161E+01  0.1383E+02
     11.518  0.1126E+01  0.1392E+02
     11.597  0.1091E+01  0.1400E+02
     11.677  0.1051E+01  0.1409E+02
     11.756  0.1005E+01  0.1417E+02
     11.835  0.9496E+00  0.1425E+02
     11.914  0.8960E+00  0.1432E+02
     11.993  0.8776E+00  0.1439E+02
     12.072  0.8905E+00  0.1446E+02
     12.151  0.8871E+00  0.1453E+02
     12.230  0.9500E+00  0.1460E+02
     12.310  0.1022E+01  0.1468E+02
     12.389  0.1095E+01  0.1476E+02
     12.468  0.1129E+01  0.1485E+02
     12.547  0.1135E+01  0.1494E+02
     12.626  0.1095E+01  0.1503E+02
     12.705  0.1018E+01  0.1512E+02
     12.784  0.9177E+00  0.1519E+02
     12.863  0.8188E+00  0.1526E+02
     12.943  0.7224E+00  0.1532E+02
     13.022  0.6738E+00  0.1538E+02
     13.101  0.6478E+00  0.1543E+02
     13.180  0.6308E+00  0.1548E+02
     13.259  0.6240E+00  0.1553E+02
     13.338  0.6218E+00  0.1558E+02
     13.417  0.6243E+00  0.1563E+02
     13.496  0.6331E+00  0.1568E+02
     13.576  0.5220E+00  0.1572E+02
     13.655  0.4351E+00  0.1576E+02
     13.734  0.3406E+00  0.1579E+02
     13.813  0.2463E+00  0.1582E+02
     13.892  0.2162E+00  0.1583E+02
     13.971  0.2001E+00  0.1585E+02
     14.050  0.1847E+00  0.1587E+02
     14.129  0.1702E+00  0.1588E+02
     14.209  0.1564E+00  0.1589E+02
     14.288  0.1433E+00  0.1590E+02
     14.367  0.1310E+00  0.1592E+02
     14.446  0.1195E+00  0.1593E+02
     14.525  0.1088E+00  0.1593E+02
     14.604  0.9879E-01  0.1594E+02
     14.683  0.8958E-01  0.1595E+02
     14.762  0.8114E-01  0.1596E+02
     14.842  0.7346E-01  0.1596E+02
     14.921  0.6655E-01  0.1597E+02
     15.000  0.6041E-01  0.1597E+02
     15.079  0.5630E-01  0.1598E+02
     15.158  0.5921E-01  0.1598E+02
     15.237  0.6627E-01  0.1599E+02
     15.316  0.7284E-01  0.1600E+02
     15.395  0.3094E-01  0.1600E+02
     15.475  0.0000E+00  0.1600E+02
     15.554  0.0000E+00  0.1600E+02
     15.633  0.0000E+00  0.1600E+02
     15.712  0.0000E+00  0.1600E+02
     15.791  0.0000E+00  0.1600E+02
     15.870  0.0000E+00  0.1600E+02
     15.949  0.0000E+00  0.1600E+02
     16.028  0.0000E+00  0.1600E+02
     16.108  0.0000E+00  0.1600E+02
     16.187  0.0000E+00  0.1600E+02
     16.266  0.0000E+00  0.1600E+02
     16.345  0.0000E+00  0.1600E+02
     16.424  0.0000E+00  0.1600E+02
     16.503  0.0000E+00  0.1600E+02
