    2    2    1    1
  0.2016476E+02  0.3849278E-09  0.3849279E-09  0.3849278E-09  0.5000000E-15
  1.000000000000000E-004
  CAR 
 Si diamond primitive cell - SCF energy  
      8     56      8
 
  0.0000000E+00  0.0000000E+00  0.0000000E+00  0.7513148E-03
      1         -6.154888   1.000000
      2          5.753207   1.000000
      3          5.753207   1.000000
      4          5.753210   1.000000
      5          8.316189   0.000000
      6          8.316196   0.000000
      7          8.316197   0.000000
      8          9.044313   0.000000
 
  0.9090909E-01  0.6938894E-17  0.0000000E+00  0.6010518E-02
      1         -6.047296   1.000000
      2          4.768117   1.000000
      3          5.586920   1.000000
      4          5.586922   1.000000
      5          8.334099   0.000000
      6          8.561272   0.000000
      7          8.561280   0.000000
      8          9.835451   0.000000
 
  0.1818182E+00  0.1387779E-16  0.0000000E+00  0.6010518E-02
      1         -5.728651   1.000000
      2          3.095720   1.000000
      3          5.248016   1.000000
      4          5.248018   1.000000
      5          8.024831   0.000000
      6          9.032790   0.000000
      7          9.032797   0.000000
      8         11.422282   0.000000
 
  0.2727273E+00  0.0000000E+00  0.0000000E+00  0.6010518E-02
      1         -5.215527   1.000000
      2          1.442642   1.000000
      3          4.925909   1.000000
      4          4.925911   1.000000
      5          7.679718   0.000000
      6          9.281295   0.000000
      7          9.281303   0.000000
      8         12.979997   0.000000
 
  0.3636364E+00  0.4163336E-16  0.0000000E+00  0.6010518E-02
      1         -4.559041   1.000000
      2         -0.006786   1.000000
      3          4.695241   1.000000
      4          4.695244   1.000000
      5          7.420536   0.000000
      6          9.221768   0.000000
      7          9.221776   0.000000
      8         13.632403   0.000000
 
  0.4545455E+00  0.0000000E+00  0.0000000E+00  0.6010518E-02
      1         -3.952674   1.000000
      2         -1.017037   1.000000
      3          4.577587   1.000000
      4          4.577590   1.000000
      5          7.285465   0.000000
      6          9.114009   0.000000
      7          9.114017   0.000000
      8         13.498989   0.000000
 
  0.9090909E-01  0.9090909E-01  0.0000000E+00  0.4507889E-02
      1         -6.011226   1.000000
      2          4.946174   1.000000
      3          5.262742   1.000000
      4          5.262743   1.000000
      5          7.997660   0.000000
      6          8.983057   0.000000
      7          8.983062   0.000000
      8          9.778241   0.000000
 
  0.1818182E+00  0.9090909E-01  0.0000000E+00  0.1803156E-01
      1         -5.762154   1.000000
      2          3.591664   1.000000
      3          4.867756   1.000000
      4          5.049449   1.000000
      5          8.033181   0.000000
      6          9.040599   0.000000
      7          9.573610   0.000000
      8         10.695854   0.000000
 
  0.2727273E+00  0.9090909E-01  0.0000000E+00  0.1803156E-01
      1         -5.311312   1.000000
      2          1.976381   1.000000
      3          4.549967   1.000000
      4          4.678080   1.000000
      5          8.156681   0.000000
      6          9.033934   0.000000
      7          9.923937   0.000000
      8         11.100740   0.000000
 
  0.3636364E+00  0.9090909E-01  0.0000000E+00  0.1803156E-01
      1         -4.692876   1.000000
      2          0.474249   1.000000
      3          4.297598   1.000000
      4          4.363872   1.000000
      5          8.004196   0.000000
      6          9.067899   0.000000
      7          9.855265   0.000000
      8         11.871808   0.000000
 
  0.4545455E+00  0.9090909E-01  0.0000000E+00  0.1803156E-01
      1         -4.027255   1.000000
      2         -0.713156   1.000000
      3          4.000522   1.000000
      4          4.323587   1.000000
      5          7.864505   0.000000
      6          9.025572   0.000000
      7          9.618059   0.000000
      8         13.114364   0.000000
 
 -0.4545455E+00  0.9090909E-01  0.0000000E+00  0.1803156E-01
      1         -3.759355   1.000000
      2         -1.112308   1.000000
      3          3.823394   1.000000
      4          4.424719   1.000000
      5          7.838857   0.000000
      6          9.080262   0.000000
      7          9.432827   0.000000
      8         13.819169   0.000000
 
 -0.3636364E+00  0.9090909E-01  0.0000000E+00  0.1803156E-01
      1         -4.239446   1.000000
      2         -0.367418   1.000000
      3          3.787389   1.000000
      4          4.651139   1.000000
      5          7.940467   0.000000
      6          9.270585   0.000000
      7          9.355645   0.000000
      8         13.509606   0.000000
 
 -0.2727273E+00  0.9090909E-01  0.0000000E+00  0.1803156E-01
      1         -4.915040   1.000000
      2          0.954957   1.000000
      3          3.908302   1.000000
      4          4.974006   1.000000
      5          8.157469   0.000000
      6          9.290634   0.000000
      7          9.484586   0.000000
      8         12.455938   0.000000
 
 -0.1818182E+00  0.9090909E-01  0.0000000E+00  0.1803156E-01
      1         -5.483767   1.000000
      2          2.499636   1.000000
      3          4.204149   1.000000
      4          5.336963   1.000000
      5          8.454168   0.000000
      6          9.011445   0.000000
      7          9.365091   0.000000
      8         11.576765   0.000000
 
 -0.9090909E-01  0.9090909E-01  0.0000000E+00  0.9015778E-02
      1         -5.869043   1.000000
      2          3.965622   1.000000
      3          4.766843   1.000000
      4          5.610846   1.000000
      5          8.611546   0.000000
      6          8.689358   0.000000
      7          8.778724   0.000000
      8         10.707655   0.000000
 
  0.1818182E+00  0.1818182E+00  0.0000000E+00  0.4507889E-02
      1         -5.582849   1.000000
      2          3.447739   1.000000
      3          4.435798   1.000000
      4          4.435799   1.000000
      5          7.351830   0.000000
      6          9.870131   0.000000
      7         10.329247   0.000000
      8         10.329249   0.000000
 
  0.2727273E+00  0.1818182E+00  0.0000000E+00  0.1803156E-01
      1         -5.197795   1.000000
      2          2.291893   1.000000
      3          4.019667   1.000000
      4          4.093983   1.000000
      5          7.404037   0.000000
      6          9.452413   0.000000
      7         10.613968   0.000000
      8         10.911534   0.000000
 
  0.3636364E+00  0.1818182E+00  0.0000000E+00  0.1803156E-01
      1         -4.629766   1.000000
      2          0.924004   1.000000
      3          3.489610   1.000000
      4          3.898083   1.000000
      5          7.638994   0.000000
      6          9.812688   0.000000
      7         10.413695   0.000000
      8         10.988540   0.000000
 
  0.4545455E+00  0.1818182E+00  0.0000000E+00  0.1803156E-01
      1         -3.953393   1.000000
      2         -0.308913   1.000000
      3          3.014603   1.000000
      4          3.865924   1.000000
      5          7.677801   0.000000
      6         10.190446   0.000000
      7         10.733215   0.000000
      8         11.022280   0.000000
 
 -0.4545455E+00  0.1818182E+00  0.0000000E+00  0.1803156E-01
      1         -3.473676   1.000000
      2         -1.015248   1.000000
      3          2.680139   1.000000
      4          3.996440   1.000000
      5          7.777598   0.000000
      6         10.061150   0.000000
      7         10.442437   0.000000
      8         12.646808   0.000000
 
 -0.3636364E+00  0.1818182E+00  0.0000000E+00  0.1803156E-01
      1         -3.757164   1.000000
      2         -0.605890   1.000000
      3          2.527465   1.000000
      4          4.273412   1.000000
      5          8.030031   0.000000
      6         10.050212   0.000000
      7         10.219908   0.000000
      8         13.478254   0.000000
 
 -0.2727273E+00  0.1818182E+00  0.0000000E+00  0.1803156E-01
      1         -4.425140   1.000000
      2          0.506260   1.000000
      3          2.608721   1.000000
      4          4.659099   1.000000
      5          8.398301   0.000000
      6          9.979937   0.000000
      7         10.099631   0.000000
      8         12.089959   0.000000
 
 -0.1818182E+00  0.1818182E+00  0.0000000E+00  0.9015778E-02
      1         -5.038429   1.000000
      2          1.693783   1.000000
      3          3.089942   1.000000
      4          5.071304   1.000000
      5          8.728862   0.000000
      6          9.493395   0.000000
      7          9.789895   0.000000
      8         11.412367   0.000000
 
  0.2727273E+00  0.2727273E+00  0.0000000E+00  0.4507889E-02
      1         -4.878249   1.000000
      2          1.831280   1.000000
      3          3.717690   1.000000
      4          3.717692   1.000000
      5          6.761958   0.000000
      6          8.554638   0.000000
      7         11.889272   0.000000
      8         11.889273   0.000000
 
  0.3636364E+00  0.2727273E+00  0.0000000E+00  0.1803156E-01
      1         -4.367356   1.000000
      2          0.879467   1.000000
      3          3.182899   1.000000
      4          3.487107   1.000000
      5          6.893784   0.000000
      6          8.265686   0.000000
      7         12.179246   0.000000
      8         12.352047   0.000000
 
  0.4545455E+00  0.2727273E+00  0.0000000E+00  0.1803156E-01
      1         -3.711186   1.000000
      2         -0.146250   1.000000
      3          2.459146   1.000000
      4          3.426060   1.000000
      5          7.091767   0.000000
      6          9.018063   0.000000
      7         12.021488   0.000000
      8         12.213391   0.000000
 
 -0.4545455E+00  0.2727273E+00  0.0000000E+00  0.1803156E-01
      1         -3.100260   1.000000
      2         -0.945010   1.000000
      3          1.888703   1.000000
      4          3.538150   1.000000
      5          7.225527   0.000000
      6         10.491219   0.000000
      7         11.856733   0.000000
      8         11.885849   0.000000
 
 -0.3636364E+00  0.2727273E+00  0.0000000E+00  0.1803156E-01
      1         -3.156118   1.000000
      2         -0.865946   1.000000
      3          1.604806   1.000000
      4          3.811522   1.000000
      5          7.514893   0.000000
      6         11.537849   0.000000
      7         11.557047   0.000000
      8         12.467575   0.000000
 
 -0.2727273E+00  0.2727273E+00  0.0000000E+00  0.9015778E-02
      1         -3.787579   1.000000
      2         -0.109387   1.000000
      3          1.764937   1.000000
      4          4.212165   1.000000
      5          7.959433   0.000000
      6         10.945131   0.000000
      7         11.284875   0.000000
      8         12.154477   0.000000
 
  0.3636364E+00  0.3636364E+00  0.0000000E+00  0.4507889E-02
      1         -3.913133   1.000000
      2          0.219487   1.000000
      3          3.213485   1.000000
      4          3.213487   1.000000
      5          6.405207   0.000000
      6          7.420399   0.000000
      7         13.547335   0.000000
      8         13.547335   0.000000
 
  0.4545455E+00  0.3636364E+00  0.0000000E+00  0.1803156E-01
      1         -3.294229   1.000000
      2         -0.592020   1.000000
      3          2.681273   1.000000
      4          3.108839   1.000000
      5          6.612473   0.000000
      6          7.435801   0.000000
      7         13.872348   0.000000
      8         13.878676   0.000000
 
 -0.4545455E+00  0.3636364E+00  0.0000000E+00  0.1803156E-01
      1         -2.623293   1.000000
      2         -1.306087   1.000000
      3          1.906377   1.000000
      4          3.181631   1.000000
      5          6.781285   0.000000
      6          8.618412   0.000000
      7         13.587792   0.000000
      8         13.747639   0.000000
 
 -0.3636364E+00  0.3636364E+00  0.0000000E+00  0.9015778E-02
      1         -2.559332   1.000000
      2         -1.338063   1.000000
      3          1.423424   1.000000
      4          3.424864   1.000000
      5          7.058476   0.000000
      6         10.335359   0.000000
      7         12.917091   0.000000
      8         13.449759   0.000000
 
  0.4545455E+00  0.4545455E+00  0.0000000E+00  0.4507889E-02
      1         -2.713152   1.000000
      2         -1.317386   1.000000
      3          2.955791   1.000000
      4          2.955794   1.000000
      5          6.363900   0.000000
      6          6.689834   0.000000
      7         15.240701   0.000000
      8         15.240703   0.000000
 
 -0.4545455E+00  0.4545455E+00  0.0000000E+00  0.9015778E-02
      1         -2.070536   1.000000
      2         -1.958804   1.000000
      3          2.516192   1.000000
      4          2.980833   1.000000
      5          6.544588   0.000000
      6          7.127299   0.000000
      7         15.172111   0.000000
      8         15.424176   0.000000
 
  0.2727273E+00  0.1818182E+00  0.9090909E-01  0.1803156E-01
      1         -5.445573   1.000000
      2          2.734337   1.000000
      3          3.931160   1.000000
      4          4.935968   1.000000
      5          8.090898   0.000000
      6          9.364554   0.000000
      7         10.122755   0.000000
      8         10.525613   0.000000
 
  0.3636364E+00  0.1818182E+00  0.9090909E-01  0.3606311E-01
      1         -4.935293   1.000000
      2          1.419085   1.000000
      3          3.371129   1.000000
      4          4.618219   1.000000
      5          8.402602   0.000000
      6          9.312060   0.000000
      7         10.444615   0.000000
      8         10.643706   0.000000
 
  0.4545455E+00  0.1818182E+00  0.9090909E-01  0.3606311E-01
      1         -4.280387   1.000000
      2          0.081102   1.000000
      3          3.115167   1.000000
      4          4.275925   1.000000
      5          8.437842   0.000000
      6          9.102481   0.000000
      7         10.545290   0.000000
      8         11.483418   0.000000
 
 -0.4545455E+00  0.1818182E+00  0.9090909E-01  0.3606311E-01
      1         -3.669377   1.000000
      2         -0.895732   1.000000
      3          3.016034   1.000000
      4          4.066240   1.000000
      5          8.416032   0.000000
      6          8.895544   0.000000
      7         10.477302   0.000000
      8         12.949137   0.000000
 
  0.3636364E+00  0.2727273E+00  0.9090909E-01  0.1803156E-01
      1         -4.750885   1.000000
      2          1.448733   1.000000
      3          3.218907   1.000000
      4          3.933455   1.000000
      5          7.529754   0.000000
      6          9.055061   0.000000
      7         10.729304   0.000000
      8         11.771548   0.000000
 
  0.4545455E+00  0.2727273E+00  0.9090909E-01  0.3606311E-01
      1         -4.136334   1.000000
      2          0.372244   1.000000
      3          2.646272   1.000000
      4          3.621334   1.000000
      5          7.889020   0.000000
      6          9.466284   0.000000
      7         10.416368   0.000000
      8         12.160103   0.000000
 
 -0.4545455E+00  0.2727273E+00  0.9090909E-01  0.3606311E-01
      1         -3.466805   1.000000
      2         -0.633210   1.000000
      3          2.262534   1.000000
      4          3.466631   1.000000
      5          8.021365   0.000000
      6         10.015519   0.000000
      7         10.837320   0.000000
      8         12.115696   0.000000
 
 -0.3636364E+00  0.2727273E+00  0.9090909E-01  0.3606311E-01
      1         -3.201597   1.000000
      2         -0.980886   1.000000
      3          2.033500   1.000000
      4          3.555883   1.000000
      5          8.234289   0.000000
      6          9.752983   0.000000
      7         12.001503   0.000000
      8         12.511795   0.000000
 
 -0.2727273E+00  0.2727273E+00  0.9090909E-01  0.3606311E-01
      1         -3.705259   1.000000
      2         -0.294549   1.000000
      3          2.022911   1.000000
      4          3.850112   1.000000
      5          8.596132   0.000000
      6          9.562988   0.000000
      7         11.294641   0.000000
      8         11.925647   0.000000
 
 -0.1818182E+00  0.2727273E+00  0.9090909E-01  0.1803156E-01
      1         -4.377386   1.000000
      2          0.683647   1.000000
      3          2.398833   1.000000
      4          4.262910   1.000000
      5          9.036172   0.000000
      6          9.148461   0.000000
      7         10.403047   0.000000
      8         11.477138   0.000000
 
  0.4545455E+00  0.3636364E+00  0.9090909E-01  0.1803156E-01
      1         -3.804429   1.000000
      2          0.083037   1.000000
      3          2.745619   1.000000
      4          3.135434   1.000000
      5          7.172485   0.000000
      6          8.021407   0.000000
      7         12.105736   0.000000
      8         13.512485   0.000000
 
 -0.4545455E+00  0.3636364E+00  0.9090909E-01  0.3606311E-01
      1         -3.127064   1.000000
      2         -0.736574   1.000000
      3          2.105390   1.000000
      4          2.958089   1.000000
      5          7.515718   0.000000
      6          8.836017   0.000000
      7         11.753935   0.000000
      8         13.877482   0.000000
 
 -0.3636364E+00  0.3636364E+00  0.9090909E-01  0.3606311E-01
      1         -2.660150   1.000000
      2         -1.233495   1.000000
      3          1.586189   1.000000
      4          3.073880   1.000000
      5          7.729974   0.000000
      6         10.400408   0.000000
      7         11.455578   0.000000
      8         13.053688   0.000000
 
 -0.2727273E+00  0.3636364E+00  0.9090909E-01  0.1803156E-01
      1         -3.044887   1.000000
      2         -0.834404   1.000000
      3          1.482323   1.000000
      4          3.395716   1.000000
      5          8.101175   0.000000
      6         10.820287   0.000000
      7         11.557902   0.000000
      8         12.445093   0.000000
 
 -0.4545455E+00  0.4545455E+00  0.9090909E-01  0.1803156E-01
      1         -2.640089   1.000000
      2         -1.314734   1.000000
      3          2.555021   1.000000
      4          2.676115   1.000000
      5          7.102398   0.000000
      6          7.371762   0.000000
      7         13.634707   0.000000
      8         15.064215   0.000000
 
 -0.3636364E+00  0.4545455E+00  0.9090909E-01  0.1803156E-01
      1         -2.137254   1.000000
      2         -1.759899   1.000000
      3          1.897491   1.000000
      4          2.748265   1.000000
      5          7.382934   0.000000
      6          8.629826   0.000000
      7         13.181346   0.000000
      8         13.412168   0.000000
 
 -0.4545455E+00  0.3636364E+00  0.1818182E+00  0.1803156E-01
      1         -3.495490   1.000000
      2         -0.309615   1.000000
      3          1.991729   1.000000
      4          3.158273   1.000000
      5          8.826923   0.000000
      6          9.463394   0.000000
      7         10.047857   0.000000
      8         13.407413   0.000000
 
 -0.3636364E+00  0.3636364E+00  0.1818182E+00  0.3606311E-01
      1         -2.863661   1.000000
      2         -1.007901   1.000000
      3          1.712412   1.000000
      4          2.839528   1.000000
      5          9.193901   0.000000
      6          9.558554   0.000000
      7         10.827311   0.000000
      8         12.691803   0.000000
 
 -0.3636364E+00  0.4545455E+00  0.1818182E+00  0.1803156E-01
      1         -2.455038   1.000000
      2         -1.358180   1.000000
      3          1.942264   1.000000
      4          2.322923   1.000000
      5          8.743331   0.000000
      6          8.949813   0.000000
      7         11.345102   0.000000
      8         12.930905   0.000000
 
 -0.2727273E+00  0.4545455E+00  0.1818182E+00  0.1803156E-01
      1         -2.256077   1.000000
      2         -1.522342   1.000000
      3          1.663673   1.000000
      4          2.359386   1.000000
      5          9.090946   0.000000
      6         10.365232   0.000000
      7         11.119961   0.000000
      8         11.125348   0.000000
