       N       E                     dE             d eps       ncg     rms          rms(c)
DAV:   1     0.490219421140E+01    0.49022E+01   -0.32062E+03   896   0.799E+02
DAV:   2    -0.108459646124E+02   -0.15748E+02   -0.15625E+02  1392   0.785E+01
DAV:   3    -0.110226770827E+02   -0.17671E+00   -0.17671E+00  1160   0.105E+01
DAV:   4    -0.110233625977E+02   -0.68551E-03   -0.68551E-03  1464   0.713E-01
DAV:   5    -0.110233631591E+02   -0.56136E-06   -0.56136E-06  1192   0.178E-02    0.484E+00
DAV:   6    -0.109017688748E+02    0.12159E+00   -0.80259E-02  1088   0.148E+00    0.296E+00
DAV:   7    -0.108461301896E+02    0.55639E-01   -0.15224E-01  1112   0.217E+00    0.185E-01
DAV:   8    -0.108472082238E+02   -0.10780E-02   -0.39220E-03  1000   0.476E-01    0.738E-02
DAV:   9    -0.108474005856E+02   -0.19236E-03   -0.19058E-04  1328   0.109E-01    0.568E-02
DAV:  10    -0.108474266607E+02   -0.26075E-04   -0.31359E-05   984   0.422E-02    0.100E-02
DAV:  11    -0.108474263065E+02    0.35419E-06   -0.54121E-07  1288   0.522E-03
   1 F= -.10847426E+02 E0= -.10847426E+02  d E =0.000000E+00
