 vasp.6.4.3 19Mar24 (build Mar 28 2025 17:57:14) complex                        
  
 executed on             LinuxIFC date 2026.05.09  14:02:18
 running   16 mpi-ranks, on    1 nodes
 distrk:  each k-point on   16 cores,    1 groups
 distr:  one band on NCORE=   8 cores,    2 groups


--------------------------------------------------------------------------------------------------------


 INCAR:
   SYSTEM = Si diamond primitive cell - SCF energy
   GGA = PE
   PREC = Accurate
   ENCUT = 520
   EDIFF = 1E-6
   NELM = 100
   ALGO = Normal
   ISMEAR = -5
   SIGMA = 0.05
   NSW = 0
   IBRION = -1
   ISIF = 2
   LCHARG = .TRUE.
   LWAVE = .FALSE.
   LREAL = .FALSE.
   NPAR = 2

 POTCAR:    PAW_PBE Si 05Jan2001                  
 POTCAR:    PAW_PBE Si 05Jan2001                  
   VRHFIN =Si: s2p2                                                                                 
   LEXCH  = PE                                                                                      
   EATOM  =   103.0669 eV,    7.5752 Ry                                                             
                                                                                                    
   TITEL  = PAW_PBE Si 05Jan2001                                                                    
   LULTRA =        F    use ultrasoft PP ?                                                          
   IUNSCR =        1    unscreen: 0-lin 1-nonlin 2-no                                               
   RPACOR =    1.500    partial core radius                                                         
   POMASS =   28.085; ZVAL   =    4.000    mass and valenz                                          
   RCORE  =    1.900    outmost cutoff radius                                                       
   RWIGS  =    2.480; RWIGS  =    1.312    wigner-seitz radius (au A)                               
   ENMAX  =  245.345; ENMIN  =  184.009 eV                                                          
   ICORE  =        2    local potential                                                             
   LCOR   =        T    correct aug charges                                                         
   LPAW   =        T    paw PP                                                                      
   EAUG   =  322.069                                                                                
   DEXC   =    0.000                                                                                
   RMAX   =    1.950    core radius for proj-oper                                                   
   RAUG   =    1.300    factor for augmentation sphere                                              
   RDEP   =    1.993    radius for radial grids                                                     
   RDEPT  =    1.837    core radius for aug-charge                                                  
                                                                                                    
   Atomic configuration                                                                             
    6 entries                                                                                       
     n  l   j            E        occ.                                                              
     1  0  0.50     -1785.8828   2.0000                                                             
     2  0  0.50      -139.4969   2.0000                                                             
     2  1  1.50       -95.5546   6.0000                                                             
     3  0  0.50       -10.8127   2.0000                                                             
     3  1  0.50        -4.0811   2.0000                                                             
     3  2  1.50        -4.0817   0.0000                                                             
   Description                                                                                      
     l       E           TYP  RCUT    TYP  RCUT                                                     
     0    -10.8127223     23  1.900                                                                 
     0     -7.6451159     23  1.900                                                                 
     1     -4.0811372     23  1.900                                                                 
     1      2.4879257     23  1.900                                                                 
     2     -4.0817478      7  1.900                                                                 
  local pseudopotential read in
  partial core-charges read in
  partial kinetic energy density read in
  atomic valenz-charges read in
  non local Contribution for L=           0  read in
    real space projection operators read in
  non local Contribution for L=           0  read in
    real space projection operators read in
  non local Contribution for L=           1  read in
    real space projection operators read in
  non local Contribution for L=           1  read in
    real space projection operators read in
    PAW grid and wavefunctions read in
 
   number of l-projection  operators is LMAX  =           4
   number of lm-projection operators is LMMAX =           8
 
  PAW_PBE Si 05Jan2001                  :
 energy of atom  1       EATOM= -103.0669
 kinetic energy error for atom=    0.0005 (will be added to EATOM!!)
 
 
 POSCAR: Si
  positions in cartesian coordinates
  No initial velocities read in


 exchange-correlation table for PE
   RHO(1)=    0.500       N(1)  =     2000
   RHO(2)=  100.500       N(2)  =     4000
 


--------------------------------------------------------------------------------------------------------


 ion  position               nearest neighbor table
   1  0.875  0.875  0.875-   2 2.36   2 2.36   2 2.36   2 2.36
   2  0.125  0.125  0.125-   1 2.36   1 2.36   1 2.36   1 2.36
 
  LATTYP: Found a face centered cubic cell.
 ALAT       =     5.4437031493
  
  Lattice vectors:
  
 A1 = (   3.3335730000,   0.0000000000,   1.9246390000)
 A2 = (   1.1111910000,   3.1429240000,   1.9246390000)
 A3 = (   0.0000000000,   0.0000000000,   3.8492780000)


Analysis of symmetry for initial positions (statically):
=====================================================================
 Subroutine PRICEL returns:
 Original cell was already a primitive cell.
 

 Routine SETGRP: Setting up the symmetry group for a 
 face centered cubic supercell.


 Subroutine GETGRP returns: Found 48 space group operations
 (whereof 12 operations were pure point group operations)
 out of a pool of 48 trial point group operations.


The static configuration has the point symmetry D_3d.
 The point group associated with its full space group is O_h .


Analysis of symmetry for dynamics (positions and initial velocities):
=====================================================================
 Subroutine PRICEL returns:
 Original cell was already a primitive cell.
 

 Routine SETGRP: Setting up the symmetry group for a 
 face centered cubic supercell.


 Subroutine GETGRP returns: Found 48 space group operations
 (whereof 12 operations were pure point group operations)
 out of a pool of 48 trial point group operations.


The dynamic configuration has the point symmetry D_3d.
 The point group associated with its full space group is O_h .


 Subroutine INISYM returns: Found 48 space group operations
 (whereof 12 operations are pure point group operations),
 and found     1 'primitive' translations


----------------------------------------------------------------------------------------

                                     Primitive cell                                     

  volume of cell :      40.3295

  direct lattice vectors                    reciprocal lattice vectors
     3.333573000  0.000000000  1.924639000     0.299978432 -0.106058350  0.000000000
     1.111191000  3.142924000  1.924639000     0.000000000  0.318175050  0.000000000
     0.000000000  0.000000000  3.849278000    -0.149989216 -0.106058350  0.259788979

  length of vectors
     3.849278403  3.849279412  3.849278000     0.318175161  0.318175050  0.318175190

  position of ions in fractional coordinates (direct lattice)
     0.875000000  0.875000000  0.875000000
     0.125000000  0.125000000  0.125000000

  ion indices of the primitive-cell ions
   primitive index   ion index
                 1           1
                 2           2

----------------------------------------------------------------------------------------

 
 
 KPOINTS: Automatic mesh                          

Automatic generation of k-mesh.
 Grid dimensions read from file:
 generate k-points for:   11   11   11

 Generating k-lattice:

  Cartesian coordinates                     Fractional coordinates (reciprocal lattice)
     0.027270767 -0.009641668  0.000000000     0.090909091  0.000000000  0.000000000
     0.000000000  0.028925005  0.000000000     0.000000000  0.090909091  0.000000000
    -0.013635383 -0.009641668  0.023617180     0.000000000  0.000000000  0.090909091

  Length of vectors
     0.028925015  0.028925005  0.028925017

  Shift w.r.t. Gamma in fractional coordinates (k-lattice)
     0.000000000  0.000000000  0.000000000

 TETIRR: Found    201 inequivalent tetrahedra from     7986
 
 Subroutine IBZKPT returns following result:
 ===========================================
 
 Found     56 irreducible k-points:
 
 Following reciprocal coordinates:
            Coordinates               Weight
  0.000000  0.000000  0.000000      1.000000
  0.090909  0.000000  0.000000      8.000000
  0.181818  0.000000  0.000000      8.000000
  0.272727  0.000000  0.000000      8.000000
  0.363636  0.000000  0.000000      8.000000
  0.454545  0.000000  0.000000      8.000000
  0.090909  0.090909  0.000000      6.000000
  0.181818  0.090909  0.000000     24.000000
  0.272727  0.090909  0.000000     24.000000
  0.363636  0.090909  0.000000     24.000000
  0.454545  0.090909  0.000000     24.000000
 -0.454545  0.090909  0.000000     24.000000
 -0.363636  0.090909  0.000000     24.000000
 -0.272727  0.090909  0.000000     24.000000
 -0.181818  0.090909  0.000000     24.000000
 -0.090909  0.090909  0.000000     12.000000
  0.181818  0.181818  0.000000      6.000000
  0.272727  0.181818  0.000000     24.000000
  0.363636  0.181818  0.000000     24.000000
  0.454545  0.181818  0.000000     24.000000
 -0.454545  0.181818  0.000000     24.000000
 -0.363636  0.181818  0.000000     24.000000
 -0.272727  0.181818  0.000000     24.000000
 -0.181818  0.181818  0.000000     12.000000
  0.272727  0.272727  0.000000      6.000000
  0.363636  0.272727  0.000000     24.000000
  0.454545  0.272727  0.000000     24.000000
 -0.454545  0.272727  0.000000     24.000000
 -0.363636  0.272727  0.000000     24.000000
 -0.272727  0.272727  0.000000     12.000000
  0.363636  0.363636  0.000000      6.000000
  0.454545  0.363636  0.000000     24.000000
 -0.454545  0.363636  0.000000     24.000000
 -0.363636  0.363636  0.000000     12.000000
  0.454545  0.454545  0.000000      6.000000
 -0.454545  0.454545  0.000000     12.000000
  0.272727  0.181818  0.090909     24.000000
  0.363636  0.181818  0.090909     48.000000
  0.454545  0.181818  0.090909     48.000000
 -0.454545  0.181818  0.090909     48.000000
  0.363636  0.272727  0.090909     24.000000
  0.454545  0.272727  0.090909     48.000000
 -0.454545  0.272727  0.090909     48.000000
 -0.363636  0.272727  0.090909     48.000000
 -0.272727  0.272727  0.090909     48.000000
 -0.181818  0.272727  0.090909     24.000000
  0.454545  0.363636  0.090909     24.000000
 -0.454545  0.363636  0.090909     48.000000
 -0.363636  0.363636  0.090909     48.000000
 -0.272727  0.363636  0.090909     24.000000
 -0.454545  0.454545  0.090909     24.000000
 -0.363636  0.454545  0.090909     24.000000
 -0.454545  0.363636  0.181818     24.000000
 -0.363636  0.363636  0.181818     48.000000
 -0.363636  0.454545  0.181818     24.000000
 -0.272727  0.454545  0.181818     24.000000
 
 Following cartesian coordinates:
            Coordinates               Weight
  0.000000  0.000000  0.000000      1.000000
  0.027271 -0.009642  0.000000      8.000000
  0.054542 -0.019283  0.000000      8.000000
  0.081812 -0.028925  0.000000      8.000000
  0.109083 -0.038567  0.000000      8.000000
  0.136354 -0.048208  0.000000      8.000000
  0.027271  0.019283  0.000000      6.000000
  0.054542  0.009642  0.000000     24.000000
  0.081812  0.000000  0.000000     24.000000
  0.109083 -0.009642  0.000000     24.000000
  0.136354 -0.019283  0.000000     24.000000
 -0.136354  0.077133  0.000000     24.000000
 -0.109083  0.067492  0.000000     24.000000
 -0.081812  0.057850  0.000000     24.000000
 -0.054542  0.048208  0.000000     24.000000
 -0.027271  0.038567  0.000000     12.000000
  0.054542  0.038567  0.000000      6.000000
  0.081812  0.028925  0.000000     24.000000
  0.109083  0.019283  0.000000     24.000000
  0.136354  0.009642  0.000000     24.000000
 -0.136354  0.106058  0.000000     24.000000
 -0.109083  0.096417  0.000000     24.000000
 -0.081812  0.086775  0.000000     24.000000
 -0.054542  0.077133  0.000000     12.000000
  0.081812  0.057850  0.000000      6.000000
  0.109083  0.048208  0.000000     24.000000
  0.136354  0.038567  0.000000     24.000000
 -0.136354  0.134983  0.000000     24.000000
 -0.109083  0.125342  0.000000     24.000000
 -0.081812  0.115700  0.000000     12.000000
  0.109083  0.077133  0.000000      6.000000
  0.136354  0.067492  0.000000     24.000000
 -0.136354  0.163908  0.000000     24.000000
 -0.109083  0.154267  0.000000     12.000000
  0.136354  0.096417  0.000000      6.000000
 -0.136354  0.192833  0.000000     12.000000
  0.068177  0.019283  0.023617     24.000000
  0.095448  0.009642  0.023617     48.000000
  0.122718 -0.000000  0.023617     48.000000
 -0.149989  0.096417  0.023617     48.000000
  0.095448  0.038567  0.023617     24.000000
  0.122718  0.028925  0.023617     48.000000
 -0.149989  0.125342  0.023617     48.000000
 -0.122718  0.115700  0.023617     48.000000
 -0.095448  0.106058  0.023617     48.000000
 -0.068177  0.096417  0.023617     24.000000
  0.122718  0.057850  0.023617     24.000000
 -0.149989  0.154267  0.023617     48.000000
 -0.122718  0.144625  0.023617     48.000000
 -0.095448  0.134983  0.023617     24.000000
 -0.149989  0.183192  0.023617     24.000000
 -0.122718  0.173550  0.023617     24.000000
 -0.163625  0.144625  0.047234     24.000000
 -0.136354  0.134983  0.047234     48.000000
 -0.136354  0.163908  0.047234     24.000000
 -0.109083  0.154267  0.047234     24.000000
 


--------------------------------------------------------------------------------------------------------




 Dimension of arrays:
   k-points           NKPTS =     56   k-points in BZ     NKDIM =     56   number of bands    NBANDS=      8
   number of dos      NEDOS =    301   number of ions     NIONS =      2
   non local maximal  LDIM  =      4   non local SUM 2l+1 LMDIM =      8
   total plane-waves  NPLWV =  27000
   max r-space proj   IRMAX =      1   max aug-charges    IRDMAX=  22581
   dimension x,y,z NGX =    30 NGY =   30 NGZ =   30
   dimension x,y,z NGXF=    60 NGYF=   60 NGZF=   60
   support grid    NGXF=    60 NGYF=   60 NGZF=   60
   ions per type =               2
   NGX,Y,Z   is equivalent  to a cutoff of  12.96, 12.96, 12.96 a.u.
   NGXF,Y,Z  is equivalent  to a cutoff of  25.91, 25.91, 25.91 a.u.

 SYSTEM =  Si diamond primitive cell - SCF energy  
 POSCAR =  Si                                      

 Startparameter for this run:
   NWRITE =      2    write-flag & timer
   PREC   = accura    normal or accurate (medium, high low for compatibility)
   ISTART =      0    job   : 0-new  1-cont  2-samecut
   ICHARG =      2    charge: 1-file 2-atom 10-const
   ISPIN  =      1    spin polarized calculation?
   LNONCOLLINEAR =      F non collinear calculations
   LSORBIT =      F    spin-orbit coupling
   INIWAV =      1    electr: 0-lowe 1-rand  2-diag
   LASPH  =      F    aspherical Exc in radial PAW
 Electronic Relaxation 1
   ENCUT  =  520.0 eV  38.22 Ry    6.18 a.u.   7.16  7.16  7.16*2*pi/ulx,y,z
   ENINI  =  520.0     initial cutoff
   ENAUG  =  322.1 eV  augmentation charge cutoff
   NELM   =    100;   NELMIN=  2; NELMDL= -5     # of ELM steps 
   EDIFF  = 0.1E-05   stopping-criterion for ELM
   LREAL  =      F    real-space projection
   NLSPLINE    = F    spline interpolate recip. space projectors
   LCOMPAT=      F    compatible to vasp.4.4
   GGA_COMPAT  = T    GGA compatible to vasp.4.4-vasp.4.6
   LMAXPAW     = -100 max onsite density
   LMAXMIX     =    2 max onsite mixed and CHGCAR
   VOSKOWN=      0    Vosko Wilk Nusair interpolation
   ROPT   =    0.00000
 Ionic relaxation
   EDIFFG = 0.1E-04   stopping-criterion for IOM
   NSW    =      0    number of steps for IOM
   NBLOCK =      1;   KBLOCK =      1    inner block; outer block 
   IBRION =     -1    ionic relax: 0-MD 1-quasi-New 2-CG
   NFREE  =      0    steps in history (QN), initial steepest desc. (CG)
   ISIF   =      2    stress and relaxation
   IWAVPR =     10    prediction:  0-non 1-charg 2-wave 3-comb
   ISYM   =      2    0-nonsym 1-usesym 2-fastsym
   LCORR  =      T    Harris-Foulkes like correction to forces

   POTIM  = 0.5000    time-step for ionic-motion
   TEIN   =    0.0    initial temperature
   TEBEG  =    0.0;   TEEND  =   0.0 temperature during run
   SMASS  =  -3.00    Nose mass-parameter (am)
   estimated Nose-frequenzy (Omega)   =  0.10E-29 period in steps = 0.13E+47 mass=  -0.339E-27a.u.
   SCALEE = 1.0000    scale energy and forces
   NPACO  =    256;   APACO  = 10.0  distance and # of slots for P.C.
   PSTRESS=    0.0 pullay stress

  Mass of Ions in am
   POMASS =  28.09
  Ionic Valenz
   ZVAL   =   4.00
  Atomic Wigner-Seitz radii
   RWIGS  =  -1.00
  virtual crystal weights 
   VCA    =   1.00
   NELECT =       8.0000    total number of electrons
   NUPDOWN=      -1.0000    fix difference up-down

 DOS related values:
   EMIN   =  10.00;   EMAX   =-10.00  energy-range for DOS
   EFERMI =   0.00;   METHOD = LEGACY      
   ISMEAR =    -5;   SIGMA  =   0.05  broadening in eV -4-tet -1-fermi 0-gaus

 Electronic relaxation 2 (details)
   IALGO  =     38    algorithm
   LDIAG  =      T    sub-space diagonalisation (order eigenvalues)
   LSUBROT=      F    optimize rotation matrix (better conditioning)
   TURBO    =      0    0=normal 1=particle mesh
   IRESTART =      0    0=no restart 2=restart with 2 vectors
   NREBOOT  =      0    no. of reboots
   NMIN     =      0    reboot dimension
   EREF     =   0.00    reference energy to select bands
   IMIX   =      4    mixing-type and parameters
     AMIX     =   0.40;   BMIX     =  1.00
     AMIX_MAG =   1.60;   BMIX_MAG =  1.00
     AMIN     =   0.10
     WC   =   100.;   INIMIX=   1;  MIXPRE=   1;  MAXMIX= -45

 Intra band minimization:
   WEIMIN = 0.0000     energy-eigenvalue tresh-hold
   EBREAK =  0.31E-07  absolut break condition
   DEPER  =   0.30     relativ break condition  

   TIME   =   0.40     timestep for ELM

  volume/ion in A,a.u.               =      20.16       136.08
  Fermi-wavevector in a.u.,A,eV,Ry     =   0.954766  1.804247 12.402783  0.911579
  Thomas-Fermi vector in A             =   2.083543
 
 Write flags
   LWAVE        =      F    write WAVECAR
   LDOWNSAMPLE  =      F    k-point downsampling of WAVECAR
   LCHARG       =      T    write CHGCAR
   LVTOT        =      F    write LOCPOT, total local potential
   LVHAR        =      F    write LOCPOT, Hartree potential only
   WRT_POTENTIAL= false  ! write potential to hdf5 file
   LELF         =      F    write electronic localiz. function (ELF)
   LORBIT       =      0    0 simple, 1 ext, 2 COOP (PROOUT), +10 PAW based schemes


 Dipole corrections
   LMONO      =      F    monopole corrections only (constant potential shift)
   LDIPOL     =      F    correct potential (dipole corrections)
   IDIPOL     =      0    1-x, 2-y, 3-z, 4-all directions 
   EPSILON    =  1.0000000 bulk dielectric constant
   LVACPOTAV  =      F  vacuum potentials using an averaging scheme for the charge density
   VACPOTFLAT =  0.1000000 required flatness to determine vacuum potential
 Exchange correlation treatment:
   GGA     = PE    functional components
   XC_C    = 1    coefficients multiplying the functional components
   LIBXC   =     F    Libxc                    
   VOSKOWN =     0    Vosko Wilk Nusair interpolation
   LHFCALC =     F    Hartree Fock is set to
   LHFONE  =     F    Hartree Fock one center treatment
   AEXX    =    0.0000 exact exchange contribution

 Parameters of functionals:
   PE:
     No parameter
 
 Van der Waals corrections
   IVDW    =     0    specifies the selected vdW correction

 Linear response parameters
   LEPSILON=     F    determine dielectric tensor
   LRPA    =     F    only Hartree local field effects (RPA)
   LNABLA  =     F    use nabla operator in PAW spheres
   LVEL    =     F    velocity operator in full k-point grid
   CSHIFT  =0.1000    complex shift for real part using Kramers Kronig
   OMEGAMAX=  -1.0    maximum frequency
   DEG_THRESHOLD= 0.2000000E-02 threshold for treating states as degnerate
   RTIME   =   -0.100 relaxation time in fs
  (WPLASMAI=    0.000 imaginary part of plasma frequency in eV, 0.658/RTIME)
   DFIELD  = 0.0000000 0.0000000 0.0000000 field for delta impulse in time
 
  Optional k-point grid parameters
   LKPOINTS_OPT  =     F    use optional k-point grid
   KPOINTS_OPT_MODE=     1    mode for optional k-point grid
 
 Orbital magnetization related:
   ORBITALMAG=     F  switch on orbital magnetization
   LCHIMAG   =     F  perturbation theory with respect to B field
   DQ        =  0.001000  dq finite difference perturbation B field
   LLRAUG    =     F  two centre corrections for induced B field
   LBONE     =     F  B-component reconstruction in AE one-centre
   LVGVCALC  =     T  calculate vGv susceptibility
   LVGVAPPL  =     F  apply vGv susceptibility instead of pGv for G=0

 Random number generation:
   RANDOM_GENERATOR = DEFAULT
   PCG_SEED         = not used


--------------------------------------------------------------------------------------------------------


 Static calculation
 charge density and potential will be updated during run
 non-spin polarized calculation
 Variant of blocked Davidson
 Davidson routine will perform the subspace rotation
 perform sub-space diagonalisation
    after iterative eigenvector-optimisation
 modified Broyden-mixing scheme, WC =      100.0
 initial mixing is a Kerker type mixing with AMIX =  0.4000 and BMIX =      1.0000
 Hartree-type preconditioning will be used
 using additional bands            4
 reciprocal scheme for non local part
 use partial core corrections
 calculate Harris-corrections to forces 
   (improved forces if not selfconsistent)
 use gradient corrections 
 use of overlap-Matrix (Vanderbilt PP)
 Fermi weights with tetrahedron method with Bloechl corrections


--------------------------------------------------------------------------------------------------------


  energy-cutoff  :      520.00
  volume of cell :       40.33
      direct lattice vectors                 reciprocal lattice vectors
     3.333573000  0.000000000  1.924639000     0.299978432 -0.106058350  0.000000000
     1.111191000  3.142924000  1.924639000     0.000000000  0.318175050  0.000000000
     0.000000000  0.000000000  3.849278000    -0.149989216 -0.106058350  0.259788979

  length of vectors
     3.849278403  3.849279412  3.849278000     0.318175161  0.318175050  0.318175190


 
 k-points in units of 2pi/SCALE and weight: Automatic mesh                          
   0.00000000  0.00000000  0.00000000       0.001
   0.02727077 -0.00964167  0.00000000       0.006
   0.05454153 -0.01928334  0.00000000       0.006
   0.08181230 -0.02892500  0.00000000       0.006
   0.10908307 -0.03856667  0.00000000       0.006
   0.13635383 -0.04820834  0.00000000       0.006
   0.02727077  0.01928334  0.00000000       0.005
   0.05454153  0.00964167  0.00000000       0.018
   0.08181230  0.00000000  0.00000000       0.018
   0.10908307 -0.00964167  0.00000000       0.018
   0.13635383 -0.01928334  0.00000000       0.018
  -0.13635383  0.07713335  0.00000000       0.018
  -0.10908307  0.06749168  0.00000000       0.018
  -0.08181230  0.05785001  0.00000000       0.018
  -0.05454153  0.04820834  0.00000000       0.018
  -0.02727077  0.03856667  0.00000000       0.009
   0.05454153  0.03856667  0.00000000       0.005
   0.08181230  0.02892500  0.00000000       0.018
   0.10908307  0.01928334  0.00000000       0.018
   0.13635383  0.00964167  0.00000000       0.018
  -0.13635383  0.10605835  0.00000000       0.018
  -0.10908307  0.09641668  0.00000000       0.018
  -0.08181230  0.08677501  0.00000000       0.018
  -0.05454153  0.07713335  0.00000000       0.009
   0.08181230  0.05785001  0.00000000       0.005
   0.10908307  0.04820834  0.00000000       0.018
   0.13635383  0.03856667  0.00000000       0.018
  -0.13635383  0.13498335  0.00000000       0.018
  -0.10908307  0.12534169  0.00000000       0.018
  -0.08181230  0.11570002  0.00000000       0.009
   0.10908307  0.07713335  0.00000000       0.005
   0.13635383  0.06749168  0.00000000       0.018
  -0.13635383  0.16390836  0.00000000       0.018
  -0.10908307  0.15426669  0.00000000       0.009
   0.13635383  0.09641668  0.00000000       0.005
  -0.13635383  0.19283336  0.00000000       0.009
   0.06817692  0.01928334  0.02361718       0.018
   0.09544768  0.00964167  0.02361718       0.036
   0.12271845 -0.00000000  0.02361718       0.036
  -0.14998922  0.09641668  0.02361718       0.036
   0.09544768  0.03856667  0.02361718       0.018
   0.12271845  0.02892500  0.02361718       0.036
  -0.14998922  0.12534169  0.02361718       0.036
  -0.12271845  0.11570002  0.02361718       0.036
  -0.09544768  0.10605835  0.02361718       0.036
  -0.06817692  0.09641668  0.02361718       0.018
   0.12271845  0.05785001  0.02361718       0.018
  -0.14998922  0.15426669  0.02361718       0.036
  -0.12271845  0.14462502  0.02361718       0.036
  -0.09544768  0.13498335  0.02361718       0.018
  -0.14998922  0.18319170  0.02361718       0.018
  -0.12271845  0.17355003  0.02361718       0.018
  -0.16362460  0.14462502  0.04723436       0.018
  -0.13635383  0.13498335  0.04723436       0.036
  -0.13635383  0.16390836  0.04723436       0.018
  -0.10908307  0.15426669  0.04723436       0.018
 
 k-points in reciprocal lattice and weights: Automatic mesh                          
   0.00000000  0.00000000  0.00000000       0.001
   0.09090909  0.00000000  0.00000000       0.006
   0.18181818  0.00000000  0.00000000       0.006
   0.27272727  0.00000000  0.00000000       0.006
   0.36363636  0.00000000  0.00000000       0.006
   0.45454545  0.00000000  0.00000000       0.006
   0.09090909  0.09090909  0.00000000       0.005
   0.18181818  0.09090909  0.00000000       0.018
   0.27272727  0.09090909  0.00000000       0.018
   0.36363636  0.09090909  0.00000000       0.018
   0.45454545  0.09090909  0.00000000       0.018
  -0.45454545  0.09090909  0.00000000       0.018
  -0.36363636  0.09090909  0.00000000       0.018
  -0.27272727  0.09090909  0.00000000       0.018
  -0.18181818  0.09090909  0.00000000       0.018
  -0.09090909  0.09090909  0.00000000       0.009
   0.18181818  0.18181818  0.00000000       0.005
   0.27272727  0.18181818  0.00000000       0.018
   0.36363636  0.18181818  0.00000000       0.018
   0.45454545  0.18181818  0.00000000       0.018
  -0.45454545  0.18181818  0.00000000       0.018
  -0.36363636  0.18181818  0.00000000       0.018
  -0.27272727  0.18181818  0.00000000       0.018
  -0.18181818  0.18181818  0.00000000       0.009
   0.27272727  0.27272727  0.00000000       0.005
   0.36363636  0.27272727  0.00000000       0.018
   0.45454545  0.27272727  0.00000000       0.018
  -0.45454545  0.27272727  0.00000000       0.018
  -0.36363636  0.27272727  0.00000000       0.018
  -0.27272727  0.27272727  0.00000000       0.009
   0.36363636  0.36363636  0.00000000       0.005
   0.45454545  0.36363636  0.00000000       0.018
  -0.45454545  0.36363636  0.00000000       0.018
  -0.36363636  0.36363636  0.00000000       0.009
   0.45454545  0.45454545  0.00000000       0.005
  -0.45454545  0.45454545  0.00000000       0.009
   0.27272727  0.18181818  0.09090909       0.018
   0.36363636  0.18181818  0.09090909       0.036
   0.45454545  0.18181818  0.09090909       0.036
  -0.45454545  0.18181818  0.09090909       0.036
   0.36363636  0.27272727  0.09090909       0.018
   0.45454545  0.27272727  0.09090909       0.036
  -0.45454545  0.27272727  0.09090909       0.036
  -0.36363636  0.27272727  0.09090909       0.036
  -0.27272727  0.27272727  0.09090909       0.036
  -0.18181818  0.27272727  0.09090909       0.018
   0.45454545  0.36363636  0.09090909       0.018
  -0.45454545  0.36363636  0.09090909       0.036
  -0.36363636  0.36363636  0.09090909       0.036
  -0.27272727  0.36363636  0.09090909       0.018
  -0.45454545  0.45454545  0.09090909       0.018
  -0.36363636  0.45454545  0.09090909       0.018
  -0.45454545  0.36363636  0.18181818       0.018
  -0.36363636  0.36363636  0.18181818       0.036
  -0.36363636  0.45454545  0.18181818       0.018
  -0.27272727  0.45454545  0.18181818       0.018
 
 position of ions in fractional coordinates (direct lattice) 
   0.87500000  0.87500000  0.87500000
   0.12500000  0.12500000  0.12500000
 
 position of ions in cartesian coordinates  (Angst):
   3.88916850  2.75005850  6.73623650
   0.55559550  0.39286550  0.96231950
 


--------------------------------------------------------------------------------------------------------


 k-point     1 :   0.0000 0.0000 0.0000  plane waves:    1067
 k-point     2 :   0.0909 0.0000 0.0000  plane waves:    1079
 k-point     3 :   0.1818 0.0000 0.0000  plane waves:    1086
 k-point     4 :   0.2727 0.0000 0.0000  plane waves:    1083
 k-point     5 :   0.3636 0.0000 0.0000  plane waves:    1089
 k-point     6 :   0.4545 0.0000 0.0000  plane waves:    1086
 k-point     7 :   0.0909 0.0909 0.0000  plane waves:    1082
 k-point     8 :   0.1818 0.0909 0.0000  plane waves:    1074
 k-point     9 :   0.2727 0.0909 0.0000  plane waves:    1088
 k-point    10 :   0.3636 0.0909 0.0000  plane waves:    1089
 k-point    11 :   0.4545 0.0909 0.0000  plane waves:    1095
 k-point    12 :  -0.4545 0.0909 0.0000  plane waves:    1082
 k-point    13 :  -0.3636 0.0909 0.0000  plane waves:    1093
 k-point    14 :  -0.2727 0.0909 0.0000  plane waves:    1085
 k-point    15 :  -0.1818 0.0909 0.0000  plane waves:    1083
 k-point    16 :  -0.0909 0.0909 0.0000  plane waves:    1077
 k-point    17 :   0.1818 0.1818 0.0000  plane waves:    1074
 k-point    18 :   0.2727 0.1818 0.0000  plane waves:    1078
 k-point    19 :   0.3636 0.1818 0.0000  plane waves:    1081
 k-point    20 :   0.4545 0.1818 0.0000  plane waves:    1091
 k-point    21 :  -0.4545 0.1818 0.0000  plane waves:    1090
 k-point    22 :  -0.3636 0.1818 0.0000  plane waves:    1087
 k-point    23 :  -0.2727 0.1818 0.0000  plane waves:    1088
 k-point    24 :  -0.1818 0.1818 0.0000  plane waves:    1081
 k-point    25 :   0.2727 0.2727 0.0000  plane waves:    1086
 k-point    26 :   0.3636 0.2727 0.0000  plane waves:    1073
 k-point    27 :   0.4545 0.2727 0.0000  plane waves:    1082
 k-point    28 :  -0.4545 0.2727 0.0000  plane waves:    1092
 k-point    29 :  -0.3636 0.2727 0.0000  plane waves:    1087
 k-point    30 :  -0.2727 0.2727 0.0000  plane waves:    1091
 k-point    31 :   0.3636 0.3636 0.0000  plane waves:    1090
 k-point    32 :   0.4545 0.3636 0.0000  plane waves:    1080
 k-point    33 :  -0.4545 0.3636 0.0000  plane waves:    1099
 k-point    34 :  -0.3636 0.3636 0.0000  plane waves:    1093
 k-point    35 :   0.4545 0.4545 0.0000  plane waves:    1094
 k-point    36 :  -0.4545 0.4545 0.0000  plane waves:    1092
 k-point    37 :   0.2727 0.1818 0.0909  plane waves:    1084
 k-point    38 :   0.3636 0.1818 0.0909  plane waves:    1088
 k-point    39 :   0.4545 0.1818 0.0909  plane waves:    1087
 k-point    40 :  -0.4545 0.1818 0.0909  plane waves:    1090
 k-point    41 :   0.3636 0.2727 0.0909  plane waves:    1078
 k-point    42 :   0.4545 0.2727 0.0909  plane waves:    1082
 k-point    43 :  -0.4545 0.2727 0.0909  plane waves:    1082
 k-point    44 :  -0.3636 0.2727 0.0909  plane waves:    1089
 k-point    45 :  -0.2727 0.2727 0.0909  plane waves:    1091
 k-point    46 :  -0.1818 0.2727 0.0909  plane waves:    1084
 k-point    47 :   0.4545 0.3636 0.0909  plane waves:    1075
 k-point    48 :  -0.4545 0.3636 0.0909  plane waves:    1081
 k-point    49 :  -0.3636 0.3636 0.0909  plane waves:    1094
 k-point    50 :  -0.2727 0.3636 0.0909  plane waves:    1098
 k-point    51 :  -0.4545 0.4545 0.0909  plane waves:    1088
 k-point    52 :  -0.3636 0.4545 0.0909  plane waves:    1090
 k-point    53 :  -0.4545 0.3636 0.1818  plane waves:    1084
 k-point    54 :  -0.3636 0.3636 0.1818  plane waves:    1089
 k-point    55 :  -0.3636 0.4545 0.1818  plane waves:    1086
 k-point    56 :  -0.2727 0.4545 0.1818  plane waves:    1089

 maximum and minimum number of plane-waves per node :       144      123

 maximum number of plane-waves:      1099
 maximum index in each direction: 
   IXMAX=    7   IYMAX=    7   IZMAX=    7
   IXMIN=   -7   IYMIN=   -7   IZMIN=   -7


 parallel 3D FFT for wavefunctions:
    minimum data exchange during FFTs selected (reduces bandwidth)
 parallel 3D FFT for charge:
    minimum data exchange during FFTs selected (reduces bandwidth)


 total amount of memory used by VASP MPI-rank0    32486. kBytes
=======================================================================

   base      :      30000. kBytes
   nonl-proj :        506. kBytes
   fftplans  :        595. kBytes
   grid      :        852. kBytes
   one-center:          3. kBytes
   wavefun   :        530. kBytes
 
     INWAV:  cpu time      0.0000: real time      0.0000
 Broyden mixing: mesh for mixing (old mesh)
   NGX = 15   NGY = 15   NGZ = 15
  (NGX  = 60   NGY  = 60   NGZ  = 60)
  gives a total of   3375 points

 initial charge density was supplied:
 charge density of overlapping atoms calculated
 number of electron       8.0000000 magnetization 
 keeping initial charge density in first step


--------------------------------------------------------------------------------------------------------


 Maximum index for augmentation-charges         1550 (set IRDMAX)


--------------------------------------------------------------------------------------------------------


 First call to EWALD:  gamma=   0.517
 Maximum number of real-space cells 3x 3x 3
 Maximum number of reciprocal cells 3x 3x 3

    FEWALD:  cpu time      0.0009: real time      0.0009


--------------------------------------- Ionic step        1  -------------------------------------------




--------------------------------------- Iteration      1(   1)  ---------------------------------------


    POTLOK:  cpu time      0.0067: real time      0.0131
    SETDIJ:  cpu time      0.0024: real time      0.0046
     EDDAV:  cpu time      0.0945: real time      0.1210
 BZINTS: Fermi energy:    9.579083;    8.000000 electrons
         Band energy: 0.179787E+02;  BLOECHL correction:   -0.128194
       DOS:  cpu time      0.0008: real time      0.0027
    --------------------------------------------
      LOOP:  cpu time      0.1044: real time      0.1415

 eigenvalue-minimisations  :   896
 total energy-change (2. order) : 0.4902194E+01  (-0.3206232E+03)
 number of electron       8.0000000 magnetization 
 augmentation part        8.0000000 magnetization 

 Free energy of the ion-electron system (eV)
  ---------------------------------------------------
  alpha Z        PSCENC =         3.33880741
  Ewald energy   TEWEN  =      -227.98820643
  -Hartree energ DENC   =       -11.11484531
  -exchange      EXHF   =         0.00000000
  -V(xc)+E(xc)   XCENC  =       -18.63153808
  PAW double counting   =       176.24759923     -141.06103558
  entropy T*S    EENTRO =         0.00000000
  eigenvalues    EBANDS =        17.97871024
  atomic energy  EATOM  =       206.13270273
  Solvation  Ediel_sol  =         0.00000000
  ---------------------------------------------------
  free energy    TOTEN  =         4.90219421 eV

  energy without entropy =        4.90219421  energy(sigma->0) =        4.90219421


--------------------------------------------------------------------------------------------------------




--------------------------------------- Iteration      1(   2)  ---------------------------------------


     EDDAV:  cpu time      0.1380: real time      0.1395
 BZINTS: Fermi energy:    5.389438;    8.000000 electrons
         Band energy: 0.223055E+01;  BLOECHL correction:    0.000000
       DOS:  cpu time      0.0003: real time      0.0003
    --------------------------------------------
      LOOP:  cpu time      0.1383: real time      0.1398

 eigenvalue-minimisations  :  1392
 total energy-change (2. order) :-0.1574816E+02  (-0.1562510E+02)
 number of electron       8.0000000 magnetization 
 augmentation part        8.0000000 magnetization 

 Free energy of the ion-electron system (eV)
  ---------------------------------------------------
  alpha Z        PSCENC =         3.33880741
  Ewald energy   TEWEN  =      -227.98820643
  -Hartree energ DENC   =       -11.11484531
  -exchange      EXHF   =         0.00000000
  -V(xc)+E(xc)   XCENC  =       -18.63153808
  PAW double counting   =       176.24759923     -141.06103558
  entropy T*S    EENTRO =         0.00000000
  eigenvalues    EBANDS =         2.23055142
  atomic energy  EATOM  =       206.13270273
  Solvation  Ediel_sol  =         0.00000000
  ---------------------------------------------------
  free energy    TOTEN  =       -10.84596461 eV

  energy without entropy =      -10.84596461  energy(sigma->0) =      -10.84596461


--------------------------------------------------------------------------------------------------------




--------------------------------------- Iteration      1(   3)  ---------------------------------------


     EDDAV:  cpu time      0.1162: real time      0.1168
 BZINTS: Fermi energy:    5.206511;    8.000000 electrons
         Band energy: 0.205384E+01;  BLOECHL correction:    0.000000
       DOS:  cpu time      0.0003: real time      0.0003
    --------------------------------------------
      LOOP:  cpu time      0.1165: real time      0.1171

 eigenvalue-minimisations  :  1160
 total energy-change (2. order) :-0.1767125E+00  (-0.1767125E+00)
 number of electron       8.0000000 magnetization 
 augmentation part        8.0000000 magnetization 

 Free energy of the ion-electron system (eV)
  ---------------------------------------------------
  alpha Z        PSCENC =         3.33880741
  Ewald energy   TEWEN  =      -227.98820643
  -Hartree energ DENC   =       -11.11484531
  -exchange      EXHF   =         0.00000000
  -V(xc)+E(xc)   XCENC  =       -18.63153808
  PAW double counting   =       176.24759923     -141.06103558
  entropy T*S    EENTRO =         0.00000000
  eigenvalues    EBANDS =         2.05383895
  atomic energy  EATOM  =       206.13270273
  Solvation  Ediel_sol  =         0.00000000
  ---------------------------------------------------
  free energy    TOTEN  =       -11.02267708 eV

  energy without entropy =      -11.02267708  energy(sigma->0) =      -11.02267708


--------------------------------------------------------------------------------------------------------




--------------------------------------- Iteration      1(   4)  ---------------------------------------


     EDDAV:  cpu time      0.1450: real time      0.1458
 BZINTS: Fermi energy:    5.248716;    8.000000 electrons
         Band energy: 0.205315E+01;  BLOECHL correction:    0.000000
       DOS:  cpu time      0.0003: real time      0.0003
    --------------------------------------------
      LOOP:  cpu time      0.1453: real time      0.1461

 eigenvalue-minimisations  :  1464
 total energy-change (2. order) :-0.6855150E-03  (-0.6855150E-03)
 number of electron       8.0000000 magnetization 
 augmentation part        8.0000000 magnetization 

 Free energy of the ion-electron system (eV)
  ---------------------------------------------------
  alpha Z        PSCENC =         3.33880741
  Ewald energy   TEWEN  =      -227.98820643
  -Hartree energ DENC   =       -11.11484531
  -exchange      EXHF   =         0.00000000
  -V(xc)+E(xc)   XCENC  =       -18.63153808
  PAW double counting   =       176.24759923     -141.06103558
  entropy T*S    EENTRO =         0.00000000
  eigenvalues    EBANDS =         2.05315343
  atomic energy  EATOM  =       206.13270273
  Solvation  Ediel_sol  =         0.00000000
  ---------------------------------------------------
  free energy    TOTEN  =       -11.02336260 eV

  energy without entropy =      -11.02336260  energy(sigma->0) =      -11.02336260


--------------------------------------------------------------------------------------------------------




--------------------------------------- Iteration      1(   5)  ---------------------------------------


     EDDAV:  cpu time      0.1187: real time      0.1194
 BZINTS: Fermi energy:    5.245424;    8.000000 electrons
         Band energy: 0.205315E+01;  BLOECHL correction:    0.000000
       DOS:  cpu time      0.0003: real time      0.0003
    CHARGE:  cpu time      0.0069: real time      0.0070
    MIXING:  cpu time      0.0004: real time      0.0019
    --------------------------------------------
      LOOP:  cpu time      0.1264: real time      0.1286

 eigenvalue-minimisations  :  1192
 total energy-change (2. order) :-0.5613639E-06  (-0.5613639E-06)
 number of electron       8.0000000 magnetization 
 augmentation part       -0.4703430 magnetization 

 Broyden mixing:
  rms(total) = 0.48351E+00    rms(broyden)= 0.48350E+00
  rms(prec ) = 0.94572E+00
  weight for this iteration     100.00

 Free energy of the ion-electron system (eV)
  ---------------------------------------------------
  alpha Z        PSCENC =         3.33880741
  Ewald energy   TEWEN  =      -227.98820643
  -Hartree energ DENC   =       -11.11484531
  -exchange      EXHF   =         0.00000000
  -V(xc)+E(xc)   XCENC  =       -18.63153808
  PAW double counting   =       176.24759923     -141.06103558
  entropy T*S    EENTRO =         0.00000000
  eigenvalues    EBANDS =         2.05315287
  atomic energy  EATOM  =       206.13270273
  Solvation  Ediel_sol  =         0.00000000
  ---------------------------------------------------
  free energy    TOTEN  =       -11.02336316 eV

  energy without entropy =      -11.02336316  energy(sigma->0) =      -11.02336316


--------------------------------------------------------------------------------------------------------




--------------------------------------- Iteration      1(   6)  ---------------------------------------


    POTLOK:  cpu time      0.0059: real time      0.0059
    SETDIJ:  cpu time      0.0010: real time      0.0010
     EDDAV:  cpu time      0.1096: real time      0.1102
 BZINTS: Fermi energy:    5.489278;    8.000000 electrons
         Band energy: 0.353445E+01;  BLOECHL correction:    0.000000
       DOS:  cpu time      0.0003: real time      0.0003
    CHARGE:  cpu time      0.0068: real time      0.0068
    MIXING:  cpu time      0.0004: real time      0.0004
    --------------------------------------------
      LOOP:  cpu time      0.1239: real time      0.1246

 eigenvalue-minimisations  :  1088
 total energy-change (2. order) : 0.1215943E+00  (-0.8025946E-02)
 number of electron       8.0000000 magnetization 
 augmentation part       -0.4645728 magnetization 

 Broyden mixing:
  rms(total) = 0.29564E+00    rms(broyden)= 0.29564E+00
  rms(prec ) = 0.56233E+00
  weight for this iteration     100.00

 eigenvalues of (default mixing * dielectric matrix)
  average eigenvalue GAMMA=   2.5641
  2.5641

 Free energy of the ion-electron system (eV)
  ---------------------------------------------------
  alpha Z        PSCENC =         3.33880741
  Ewald energy   TEWEN  =      -227.98820643
  -Hartree energ DENC   =       -12.60081727
  -exchange      EXHF   =         0.00000000
  -V(xc)+E(xc)   XCENC  =       -18.39746752
  PAW double counting   =       376.73152086     -341.65275900
  entropy T*S    EENTRO =         0.00000000
  eigenvalues    EBANDS =         3.53445034
  atomic energy  EATOM  =       206.13270273
  Solvation  Ediel_sol  =         0.00000000
  ---------------------------------------------------
  free energy    TOTEN  =       -10.90176887 eV

  energy without entropy =      -10.90176887  energy(sigma->0) =      -10.90176887


--------------------------------------------------------------------------------------------------------




--------------------------------------- Iteration      1(   7)  ---------------------------------------


    POTLOK:  cpu time      0.0059: real time      0.0060
    SETDIJ:  cpu time      0.0009: real time      0.0010
     EDDAV:  cpu time      0.1115: real time      0.1120
 BZINTS: Fermi energy:    5.834957;    8.000000 electrons
         Band energy: 0.576564E+01;  BLOECHL correction:    0.000000
       DOS:  cpu time      0.0003: real time      0.0003
    CHARGE:  cpu time      0.0068: real time      0.0068
    MIXING:  cpu time      0.0003: real time      0.0003
    --------------------------------------------
      LOOP:  cpu time      0.1258: real time      0.1264

 eigenvalue-minimisations  :  1112
 total energy-change (2. order) : 0.5563869E-01  (-0.1522401E-01)
 number of electron       8.0000000 magnetization 
 augmentation part       -0.4575646 magnetization 

 Broyden mixing:
  rms(total) = 0.18453E-01    rms(broyden)= 0.18453E-01
  rms(prec ) = 0.41227E-01
  weight for this iteration     100.00

 eigenvalues of (default mixing * dielectric matrix)
  average eigenvalue GAMMA=   2.0708
  1.7644  2.3771

 Free energy of the ion-electron system (eV)
  ---------------------------------------------------
  alpha Z        PSCENC =         3.33880741
  Ewald energy   TEWEN  =      -227.98820643
  -Hartree energ DENC   =       -15.02820753
  -exchange      EXHF   =         0.00000000
  -V(xc)+E(xc)   XCENC  =       -18.00639723
  PAW double counting   =       854.35852569     -819.41899811
  entropy T*S    EENTRO =         0.00000000
  eigenvalues    EBANDS =         5.76564327
  atomic energy  EATOM  =       206.13270273
  Solvation  Ediel_sol  =         0.00000000
  ---------------------------------------------------
  free energy    TOTEN  =       -10.84613019 eV

  energy without entropy =      -10.84613019  energy(sigma->0) =      -10.84613019


--------------------------------------------------------------------------------------------------------




--------------------------------------- Iteration      1(   8)  ---------------------------------------


    POTLOK:  cpu time      0.0060: real time      0.0060
    SETDIJ:  cpu time      0.0009: real time      0.0009
     EDDAV:  cpu time      0.1017: real time      0.1022
 BZINTS: Fermi energy:    5.819801;    8.000000 electrons
         Band energy: 0.566652E+01;  BLOECHL correction:    0.000000
       DOS:  cpu time      0.0003: real time      0.0003
    CHARGE:  cpu time      0.0067: real time      0.0068
    MIXING:  cpu time      0.0004: real time      0.0004
    --------------------------------------------
      LOOP:  cpu time      0.1160: real time      0.1166

 eigenvalue-minimisations  :  1000
 total energy-change (2. order) :-0.1078034E-02  (-0.3921983E-03)
 number of electron       8.0000000 magnetization 
 augmentation part       -0.4585344 magnetization 

 Broyden mixing:
  rms(total) = 0.73831E-02    rms(broyden)= 0.73831E-02
  rms(prec ) = 0.13116E-01
  weight for this iteration     100.00

 eigenvalues of (default mixing * dielectric matrix)
  average eigenvalue GAMMA=   2.2657
  2.8570  1.9700  1.9700

 Free energy of the ion-electron system (eV)
  ---------------------------------------------------
  alpha Z        PSCENC =         3.33880741
  Ewald energy   TEWEN  =      -227.98820643
  -Hartree energ DENC   =       -14.95703993
  -exchange      EXHF   =         0.00000000
  -V(xc)+E(xc)   XCENC  =       -18.00632610
  PAW double counting   =       863.71373079     -828.74739702
  entropy T*S    EENTRO =         0.00000000
  eigenvalues    EBANDS =         5.66652033
  atomic energy  EATOM  =       206.13270273
  Solvation  Ediel_sol  =         0.00000000
  ---------------------------------------------------
  free energy    TOTEN  =       -10.84720822 eV

  energy without entropy =      -10.84720822  energy(sigma->0) =      -10.84720822


--------------------------------------------------------------------------------------------------------




--------------------------------------- Iteration      1(   9)  ---------------------------------------


    POTLOK:  cpu time      0.0059: real time      0.0059
    SETDIJ:  cpu time      0.0010: real time      0.0010
     EDDAV:  cpu time      0.1320: real time      0.1327
 BZINTS: Fermi energy:    5.823291;    8.000000 electrons
         Band energy: 0.569852E+01;  BLOECHL correction:    0.000000
       DOS:  cpu time      0.0003: real time      0.0003
    CHARGE:  cpu time      0.0067: real time      0.0068
    MIXING:  cpu time      0.0004: real time      0.0004
    --------------------------------------------
      LOOP:  cpu time      0.1462: real time      0.1470

 eigenvalue-minimisations  :  1328
 total energy-change (2. order) :-0.1923618E-03  (-0.1905831E-04)
 number of electron       8.0000000 magnetization 
 augmentation part       -0.4586505 magnetization 

 Broyden mixing:
  rms(total) = 0.56805E-02    rms(broyden)= 0.56805E-02
  rms(prec ) = 0.65605E-02
  weight for this iteration     100.00

 eigenvalues of (default mixing * dielectric matrix)
  average eigenvalue GAMMA=   2.1142
  0.9366  2.5556  2.5556  2.4088

 Free energy of the ion-electron system (eV)
  ---------------------------------------------------
  alpha Z        PSCENC =         3.33880741
  Ewald energy   TEWEN  =      -227.98820643
  -Hartree energ DENC   =       -14.99985180
  -exchange      EXHF   =         0.00000000
  -V(xc)+E(xc)   XCENC  =       -17.99799632
  PAW double counting   =       865.68266092     -830.71403329
  entropy T*S    EENTRO =         0.00000000
  eigenvalues    EBANDS =         5.69851619
  atomic energy  EATOM  =       206.13270273
  Solvation  Ediel_sol  =         0.00000000
  ---------------------------------------------------
  free energy    TOTEN  =       -10.84740059 eV

  energy without entropy =      -10.84740059  energy(sigma->0) =      -10.84740059


--------------------------------------------------------------------------------------------------------




--------------------------------------- Iteration      1(  10)  ---------------------------------------


    POTLOK:  cpu time      0.0059: real time      0.0059
    SETDIJ:  cpu time      0.0009: real time      0.0009
     EDDAV:  cpu time      0.0995: real time      0.1000
 BZINTS: Fermi energy:    5.824196;    8.000000 electrons
         Band energy: 0.570598E+01;  BLOECHL correction:    0.000000
       DOS:  cpu time      0.0003: real time      0.0003
    CHARGE:  cpu time      0.0067: real time      0.0068
    MIXING:  cpu time      0.0004: real time      0.0004
    --------------------------------------------
      LOOP:  cpu time      0.1137: real time      0.1143

 eigenvalue-minimisations  :   984
 total energy-change (2. order) :-0.2607517E-04  (-0.3135895E-05)
 number of electron       8.0000000 magnetization 
 augmentation part       -0.4586278 magnetization 

 Broyden mixing:
  rms(total) = 0.10012E-02    rms(broyden)= 0.10012E-02
  rms(prec ) = 0.10824E-02
  weight for this iteration     100.00

 eigenvalues of (default mixing * dielectric matrix)
  average eigenvalue GAMMA=   1.9079
  2.8979  2.4355  2.0739  1.0661  1.0661

 Free energy of the ion-electron system (eV)
  ---------------------------------------------------
  alpha Z        PSCENC =         3.33880741
  Ewald energy   TEWEN  =      -227.98820643
  -Hartree energ DENC   =       -15.00782606
  -exchange      EXHF   =         0.00000000
  -V(xc)+E(xc)   XCENC  =       -17.99764347
  PAW double counting   =       854.15085785     -819.18209731
  entropy T*S    EENTRO =         0.00000000
  eigenvalues    EBANDS =         5.70597862
  atomic energy  EATOM  =       206.13270273
  Solvation  Ediel_sol  =         0.00000000
  ---------------------------------------------------
  free energy    TOTEN  =       -10.84742666 eV

  energy without entropy =      -10.84742666  energy(sigma->0) =      -10.84742666


--------------------------------------------------------------------------------------------------------




--------------------------------------- Iteration      1(  11)  ---------------------------------------


    POTLOK:  cpu time      0.0059: real time      0.0059
    SETDIJ:  cpu time      0.0009: real time      0.0009
     EDDAV:  cpu time      0.1302: real time      0.1309
 BZINTS: Fermi energy:    5.823965;    8.000000 electrons
         Band energy: 0.570420E+01;  BLOECHL correction:    0.000000
       DOS:  cpu time      0.0003: real time      0.0003
    --------------------------------------------
      LOOP:  cpu time      0.1373: real time      0.1380

 eigenvalue-minimisations  :  1288
 total energy-change (2. order) : 0.3541911E-06  (-0.5412142E-07)
 number of electron       8.0000000 magnetization 
 augmentation part       -0.4586278 magnetization 

 Free energy of the ion-electron system (eV)
  ---------------------------------------------------
  alpha Z        PSCENC =         3.33880741
  Ewald energy   TEWEN  =      -227.98820643
  -Hartree energ DENC   =       -15.00643952
  -exchange      EXHF   =         0.00000000
  -V(xc)+E(xc)   XCENC  =       -17.99769342
  PAW double counting   =       855.60481304     -820.63560592
  entropy T*S    EENTRO =         0.00000000
  eigenvalues    EBANDS =         5.70419580
  atomic energy  EATOM  =       206.13270273
  Solvation  Ediel_sol  =         0.00000000
  ---------------------------------------------------
  free energy    TOTEN  =       -10.84742631 eV

  energy without entropy =      -10.84742631  energy(sigma->0) =      -10.84742631


--------------------------------------------------------------------------------------------------------




 average (electrostatic) potential at core
  the test charge radii are     0.9892
  (the norm of the test charge is              1.0000)
       1 -83.3304       2 -83.3304
 
 
 
 E-fermi :   5.8240     XC(G=0):  -9.3813     alpha+bet :-11.8943

 val. band max:        5.7532099331   @ k =   0.0000   0.0000   0.0000
 cond. band min:       6.3638998716   @ k =   0.4545   0.4545   0.0000
 fundamental gap:      0.6106899386
 Fermi energy:         5.8239648179

 k-point     1 :       0.0000    0.0000    0.0000
  band No.  band energies     occupation 
      1      -6.1549      2.00000
      2       5.7532      2.00000
      3       5.7532      2.00000
      4       5.7532      2.00000
      5       8.3162      0.00000
      6       8.3162      0.00000
      7       8.3162      0.00000
      8       9.0443      0.00000

 k-point     2 :       0.0909    0.0000    0.0000
  band No.  band energies     occupation 
      1      -6.0473      2.00000
      2       4.7681      2.00000
      3       5.5869      2.00000
      4       5.5869      2.00000
      5       8.3341      0.00000
      6       8.5613      0.00000
      7       8.5613      0.00000
      8       9.8355      0.00000

 k-point     3 :       0.1818    0.0000    0.0000
  band No.  band energies     occupation 
      1      -5.7287      2.00000
      2       3.0957      2.00000
      3       5.2480      2.00000
      4       5.2480      2.00000
      5       8.0248      0.00000
      6       9.0328      0.00000
      7       9.0328      0.00000
      8      11.4223      0.00000

 k-point     4 :       0.2727    0.0000    0.0000
  band No.  band energies     occupation 
      1      -5.2155      2.00000
      2       1.4426      2.00000
      3       4.9259      2.00000
      4       4.9259      2.00000
      5       7.6797      0.00000
      6       9.2813      0.00000
      7       9.2813      0.00000
      8      12.9800      0.00000

 k-point     5 :       0.3636    0.0000    0.0000
  band No.  band energies     occupation 
      1      -4.5590      2.00000
      2      -0.0068      2.00000
      3       4.6952      2.00000
      4       4.6952      2.00000
      5       7.4205      0.00000
      6       9.2218      0.00000
      7       9.2218      0.00000
      8      13.6324      0.00000

 k-point     6 :       0.4545    0.0000    0.0000
  band No.  band energies     occupation 
      1      -3.9527      2.00000
      2      -1.0170      2.00000
      3       4.5776      2.00000
      4       4.5776      2.00000
      5       7.2855      0.00000
      6       9.1140      0.00000
      7       9.1140      0.00000
      8      13.4990      0.00000

 k-point     7 :       0.0909    0.0909    0.0000
  band No.  band energies     occupation 
      1      -6.0112      2.00000
      2       4.9462      2.00000
      3       5.2627      2.00000
      4       5.2627      2.00000
      5       7.9977      0.00000
      6       8.9831      0.00000
      7       8.9831      0.00000
      8       9.7782      0.00000

 k-point     8 :       0.1818    0.0909    0.0000
  band No.  band energies     occupation 
      1      -5.7622      2.00000
      2       3.5917      2.00000
      3       4.8678      2.00000
      4       5.0494      2.00000
      5       8.0332      0.00000
      6       9.0406      0.00000
      7       9.5736      0.00000
      8      10.6959      0.00000

 k-point     9 :       0.2727    0.0909    0.0000
  band No.  band energies     occupation 
      1      -5.3113      2.00000
      2       1.9764      2.00000
      3       4.5500      2.00000
      4       4.6781      2.00000
      5       8.1567      0.00000
      6       9.0339      0.00000
      7       9.9239      0.00000
      8      11.1007      0.00000

 k-point    10 :       0.3636    0.0909    0.0000
  band No.  band energies     occupation 
      1      -4.6929      2.00000
      2       0.4742      2.00000
      3       4.2976      2.00000
      4       4.3639      2.00000
      5       8.0042      0.00000
      6       9.0679      0.00000
      7       9.8553      0.00000
      8      11.8718      0.00000

 k-point    11 :       0.4545    0.0909    0.0000
  band No.  band energies     occupation 
      1      -4.0273      2.00000
      2      -0.7132      2.00000
      3       4.0005      2.00000
      4       4.3236      2.00000
      5       7.8645      0.00000
      6       9.0256      0.00000
      7       9.6181      0.00000
      8      13.1144      0.00000

 k-point    12 :      -0.4545    0.0909    0.0000
  band No.  band energies     occupation 
      1      -3.7594      2.00000
      2      -1.1123      2.00000
      3       3.8234      2.00000
      4       4.4247      2.00000
      5       7.8389      0.00000
      6       9.0803      0.00000
      7       9.4328      0.00000
      8      13.8192      0.00000

 k-point    13 :      -0.3636    0.0909    0.0000
  band No.  band energies     occupation 
      1      -4.2394      2.00000
      2      -0.3674      2.00000
      3       3.7874      2.00000
      4       4.6511      2.00000
      5       7.9405      0.00000
      6       9.2706      0.00000
      7       9.3556      0.00000
      8      13.5096      0.00000

 k-point    14 :      -0.2727    0.0909    0.0000
  band No.  band energies     occupation 
      1      -4.9150      2.00000
      2       0.9550      2.00000
      3       3.9083      2.00000
      4       4.9740      2.00000
      5       8.1575      0.00000
      6       9.2906      0.00000
      7       9.4846      0.00000
      8      12.4559      0.00000

 k-point    15 :      -0.1818    0.0909    0.0000
  band No.  band energies     occupation 
      1      -5.4838      2.00000
      2       2.4996      2.00000
      3       4.2041      2.00000
      4       5.3370      2.00000
      5       8.4542      0.00000
      6       9.0114      0.00000
      7       9.3651      0.00000
      8      11.5768      0.00000

 k-point    16 :      -0.0909    0.0909    0.0000
  band No.  band energies     occupation 
      1      -5.8690      2.00000
      2       3.9656      2.00000
      3       4.7668      2.00000
      4       5.6108      2.00000
      5       8.6115      0.00000
      6       8.6894      0.00000
      7       8.7787      0.00000
      8      10.7077      0.00000

 k-point    17 :       0.1818    0.1818    0.0000
  band No.  band energies     occupation 
      1      -5.5828      2.00000
      2       3.4477      2.00000
      3       4.4358      2.00000
      4       4.4358      2.00000
      5       7.3518      0.00000
      6       9.8701      0.00000
      7      10.3292      0.00000
      8      10.3292      0.00000

 k-point    18 :       0.2727    0.1818    0.0000
  band No.  band energies     occupation 
      1      -5.1978      2.00000
      2       2.2919      2.00000
      3       4.0197      2.00000
      4       4.0940      2.00000
      5       7.4040      0.00000
      6       9.4524      0.00000
      7      10.6140      0.00000
      8      10.9115      0.00000

 k-point    19 :       0.3636    0.1818    0.0000
  band No.  band energies     occupation 
      1      -4.6298      2.00000
      2       0.9240      2.00000
      3       3.4896      2.00000
      4       3.8981      2.00000
      5       7.6390      0.00000
      6       9.8127      0.00000
      7      10.4137      0.00000
      8      10.9885      0.00000

 k-point    20 :       0.4545    0.1818    0.0000
  band No.  band energies     occupation 
      1      -3.9534      2.00000
      2      -0.3089      2.00000
      3       3.0146      2.00000
      4       3.8659      2.00000
      5       7.6778      0.00000
      6      10.1904      0.00000
      7      10.7332      0.00000
      8      11.0223      0.00000

 k-point    21 :      -0.4545    0.1818    0.0000
  band No.  band energies     occupation 
      1      -3.4737      2.00000
      2      -1.0152      2.00000
      3       2.6801      2.00000
      4       3.9964      2.00000
      5       7.7776      0.00000
      6      10.0612      0.00000
      7      10.4424      0.00000
      8      12.6468      0.00000

 k-point    22 :      -0.3636    0.1818    0.0000
  band No.  band energies     occupation 
      1      -3.7572      2.00000
      2      -0.6059      2.00000
      3       2.5275      2.00000
      4       4.2734      2.00000
      5       8.0300      0.00000
      6      10.0502      0.00000
      7      10.2199      0.00000
      8      13.4783      0.00000

 k-point    23 :      -0.2727    0.1818    0.0000
  band No.  band energies     occupation 
      1      -4.4251      2.00000
      2       0.5063      2.00000
      3       2.6087      2.00000
      4       4.6591      2.00000
      5       8.3983      0.00000
      6       9.9799      0.00000
      7      10.0996      0.00000
      8      12.0900      0.00000

 k-point    24 :      -0.1818    0.1818    0.0000
  band No.  band energies     occupation 
      1      -5.0384      2.00000
      2       1.6938      2.00000
      3       3.0899      2.00000
      4       5.0713      2.00000
      5       8.7289      0.00000
      6       9.4934      0.00000
      7       9.7899      0.00000
      8      11.4124      0.00000

 k-point    25 :       0.2727    0.2727    0.0000
  band No.  band energies     occupation 
      1      -4.8782      2.00000
      2       1.8313      2.00000
      3       3.7177      2.00000
      4       3.7177      2.00000
      5       6.7620      0.00000
      6       8.5546      0.00000
      7      11.8893      0.00000
      8      11.8893      0.00000

 k-point    26 :       0.3636    0.2727    0.0000
  band No.  band energies     occupation 
      1      -4.3674      2.00000
      2       0.8795      2.00000
      3       3.1829      2.00000
      4       3.4871      2.00000
      5       6.8938      0.00000
      6       8.2657      0.00000
      7      12.1792      0.00000
      8      12.3520      0.00000

 k-point    27 :       0.4545    0.2727    0.0000
  band No.  band energies     occupation 
      1      -3.7112      2.00000
      2      -0.1463      2.00000
      3       2.4591      2.00000
      4       3.4261      2.00000
      5       7.0918      0.00000
      6       9.0181      0.00000
      7      12.0215      0.00000
      8      12.2134      0.00000

 k-point    28 :      -0.4545    0.2727    0.0000
  band No.  band energies     occupation 
      1      -3.1003      2.00000
      2      -0.9450      2.00000
      3       1.8887      2.00000
      4       3.5381      2.00000
      5       7.2255      0.00000
      6      10.4912      0.00000
      7      11.8567      0.00000
      8      11.8858      0.00000

 k-point    29 :      -0.3636    0.2727    0.0000
  band No.  band energies     occupation 
      1      -3.1561      2.00000
      2      -0.8659      2.00000
      3       1.6048      2.00000
      4       3.8115      2.00000
      5       7.5149      0.00000
      6      11.5378      0.00000
      7      11.5570      0.00000
      8      12.4676      0.00000

 k-point    30 :      -0.2727    0.2727    0.0000
  band No.  band energies     occupation 
      1      -3.7876      2.00000
      2      -0.1094      2.00000
      3       1.7649      2.00000
      4       4.2122      2.00000
      5       7.9594      0.00000
      6      10.9451      0.00000
      7      11.2849      0.00000
      8      12.1545      0.00000

 k-point    31 :       0.3636    0.3636    0.0000
  band No.  band energies     occupation 
      1      -3.9131      2.00000
      2       0.2195      2.00000
      3       3.2135      2.00000
      4       3.2135      2.00000
      5       6.4052      0.00000
      6       7.4204      0.00000
      7      13.5473      0.00000
      8      13.5473      0.00000

 k-point    32 :       0.4545    0.3636    0.0000
  band No.  band energies     occupation 
      1      -3.2942      2.00000
      2      -0.5920      2.00000
      3       2.6813      2.00000
      4       3.1088      2.00000
      5       6.6125      0.00000
      6       7.4358      0.00000
      7      13.8723      0.00000
      8      13.8787      0.00000

 k-point    33 :      -0.4545    0.3636    0.0000
  band No.  band energies     occupation 
      1      -2.6233      2.00000
      2      -1.3061      2.00000
      3       1.9064      2.00000
      4       3.1816      2.00000
      5       6.7813      0.00000
      6       8.6184      0.00000
      7      13.5878      0.00000
      8      13.7476      0.00000

 k-point    34 :      -0.3636    0.3636    0.0000
  band No.  band energies     occupation 
      1      -2.5593      2.00000
      2      -1.3381      2.00000
      3       1.4234      2.00000
      4       3.4249      2.00000
      5       7.0585      0.00000
      6      10.3354      0.00000
      7      12.9171      0.00000
      8      13.4498      0.00000

 k-point    35 :       0.4545    0.4545    0.0000
  band No.  band energies     occupation 
      1      -2.7132      2.00000
      2      -1.3174      2.00000
      3       2.9558      2.00000
      4       2.9558      2.00000
      5       6.3639      0.00000
      6       6.6898      0.00000
      7      15.2407      0.00000
      8      15.2407      0.00000

 k-point    36 :      -0.4545    0.4545    0.0000
  band No.  band energies     occupation 
      1      -2.0705      2.00000
      2      -1.9588      2.00000
      3       2.5162      2.00000
      4       2.9808      2.00000
      5       6.5446      0.00000
      6       7.1273      0.00000
      7      15.1721      0.00000
      8      15.4242      0.00000

 k-point    37 :       0.2727    0.1818    0.0909
  band No.  band energies     occupation 
      1      -5.4456      2.00000
      2       2.7343      2.00000
      3       3.9312      2.00000
      4       4.9360      2.00000
      5       8.0909      0.00000
      6       9.3646      0.00000
      7      10.1228      0.00000
      8      10.5256      0.00000

 k-point    38 :       0.3636    0.1818    0.0909
  band No.  band energies     occupation 
      1      -4.9353      2.00000
      2       1.4191      2.00000
      3       3.3711      2.00000
      4       4.6182      2.00000
      5       8.4026      0.00000
      6       9.3121      0.00000
      7      10.4446      0.00000
      8      10.6437      0.00000

 k-point    39 :       0.4545    0.1818    0.0909
  band No.  band energies     occupation 
      1      -4.2804      2.00000
      2       0.0811      2.00000
      3       3.1152      2.00000
      4       4.2759      2.00000
      5       8.4378      0.00000
      6       9.1025      0.00000
      7      10.5453      0.00000
      8      11.4834      0.00000

 k-point    40 :      -0.4545    0.1818    0.0909
  band No.  band energies     occupation 
      1      -3.6694      2.00000
      2      -0.8957      2.00000
      3       3.0160      2.00000
      4       4.0662      2.00000
      5       8.4160      0.00000
      6       8.8955      0.00000
      7      10.4773      0.00000
      8      12.9491      0.00000

 k-point    41 :       0.3636    0.2727    0.0909
  band No.  band energies     occupation 
      1      -4.7509      2.00000
      2       1.4487      2.00000
      3       3.2189      2.00000
      4       3.9335      2.00000
      5       7.5298      0.00000
      6       9.0551      0.00000
      7      10.7293      0.00000
      8      11.7715      0.00000

 k-point    42 :       0.4545    0.2727    0.0909
  band No.  band energies     occupation 
      1      -4.1363      2.00000
      2       0.3722      2.00000
      3       2.6463      2.00000
      4       3.6213      2.00000
      5       7.8890      0.00000
      6       9.4663      0.00000
      7      10.4164      0.00000
      8      12.1601      0.00000

 k-point    43 :      -0.4545    0.2727    0.0909
  band No.  band energies     occupation 
      1      -3.4668      2.00000
      2      -0.6332      2.00000
      3       2.2625      2.00000
      4       3.4666      2.00000
      5       8.0214      0.00000
      6      10.0155      0.00000
      7      10.8373      0.00000
      8      12.1157      0.00000

 k-point    44 :      -0.3636    0.2727    0.0909
  band No.  band energies     occupation 
      1      -3.2016      2.00000
      2      -0.9809      2.00000
      3       2.0335      2.00000
      4       3.5559      2.00000
      5       8.2343      0.00000
      6       9.7530      0.00000
      7      12.0015      0.00000
      8      12.5118      0.00000

 k-point    45 :      -0.2727    0.2727    0.0909
  band No.  band energies     occupation 
      1      -3.7053      2.00000
      2      -0.2945      2.00000
      3       2.0229      2.00000
      4       3.8501      2.00000
      5       8.5961      0.00000
      6       9.5630      0.00000
      7      11.2946      0.00000
      8      11.9256      0.00000

 k-point    46 :      -0.1818    0.2727    0.0909
  band No.  band energies     occupation 
      1      -4.3774      2.00000
      2       0.6836      2.00000
      3       2.3988      2.00000
      4       4.2629      2.00000
      5       9.0362      0.00000
      6       9.1485      0.00000
      7      10.4030      0.00000
      8      11.4771      0.00000

 k-point    47 :       0.4545    0.3636    0.0909
  band No.  band energies     occupation 
      1      -3.8044      2.00000
      2       0.0830      2.00000
      3       2.7456      2.00000
      4       3.1354      2.00000
      5       7.1725      0.00000
      6       8.0214      0.00000
      7      12.1057      0.00000
      8      13.5125      0.00000

 k-point    48 :      -0.4545    0.3636    0.0909
  band No.  band energies     occupation 
      1      -3.1271      2.00000
      2      -0.7366      2.00000
      3       2.1054      2.00000
      4       2.9581      2.00000
      5       7.5157      0.00000
      6       8.8360      0.00000
      7      11.7539      0.00000
      8      13.8775      0.00000

 k-point    49 :      -0.3636    0.3636    0.0909
  band No.  band energies     occupation 
      1      -2.6601      2.00000
      2      -1.2335      2.00000
      3       1.5862      2.00000
      4       3.0739      2.00000
      5       7.7300      0.00000
      6      10.4004      0.00000
      7      11.4556      0.00000
      8      13.0537      0.00000

 k-point    50 :      -0.2727    0.3636    0.0909
  band No.  band energies     occupation 
      1      -3.0449      2.00000
      2      -0.8344      2.00000
      3       1.4823      2.00000
      4       3.3957      2.00000
      5       8.1012      0.00000
      6      10.8203      0.00000
      7      11.5579      0.00000
      8      12.4451      0.00000

 k-point    51 :      -0.4545    0.4545    0.0909
  band No.  band energies     occupation 
      1      -2.6401      2.00000
      2      -1.3147      2.00000
      3       2.5550      2.00000
      4       2.6761      2.00000
      5       7.1024      0.00000
      6       7.3718      0.00000
      7      13.6347      0.00000
      8      15.0642      0.00000

 k-point    52 :      -0.3636    0.4545    0.0909
  band No.  band energies     occupation 
      1      -2.1373      2.00000
      2      -1.7599      2.00000
      3       1.8975      2.00000
      4       2.7483      2.00000
      5       7.3829      0.00000
      6       8.6298      0.00000
      7      13.1813      0.00000
      8      13.4122      0.00000

 k-point    53 :      -0.4545    0.3636    0.1818
  band No.  band energies     occupation 
      1      -3.4955      2.00000
      2      -0.3096      2.00000
      3       1.9917      2.00000
      4       3.1583      2.00000
      5       8.8269      0.00000
      6       9.4634      0.00000
      7      10.0479      0.00000
      8      13.4074      0.00000

 k-point    54 :      -0.3636    0.3636    0.1818
  band No.  band energies     occupation 
      1      -2.8637      2.00000
      2      -1.0079      2.00000
      3       1.7124      2.00000
      4       2.8395      2.00000
      5       9.1939      0.00000
      6       9.5586      0.00000
      7      10.8273      0.00000
      8      12.6918      0.00000

 k-point    55 :      -0.3636    0.4545    0.1818
  band No.  band energies     occupation 
      1      -2.4550      2.00000
      2      -1.3582      2.00000
      3       1.9423      2.00000
      4       2.3229      2.00000
      5       8.7433      0.00000
      6       8.9498      0.00000
      7      11.3451      0.00000
      8      12.9309      0.00000

 k-point    56 :      -0.2727    0.4545    0.1818
  band No.  band energies     occupation 
      1      -2.2561      2.00000
      2      -1.5223      2.00000
      3       1.6637      2.00000
      4       2.3594      2.00000
      5       9.0909      0.00000
      6      10.3652      0.00000
      7      11.1200      0.00000
      8      11.1253      0.00000


--------------------------------------------------------------------------------------------------------


 soft charge-density along one line, spin component           1
         0         1         2         3         4         5         6         7         8         9
 total charge-density along one line
 
 pseudopotential strength for first ion, spin component:           1
 18.422  25.702   0.000  -0.000   0.000   0.000  -0.000   0.000
 25.702  35.863   0.000  -0.000   0.000   0.000  -0.000   0.000
  0.000   0.000   4.179  -0.000   0.000   7.788  -0.000   0.000
 -0.000  -0.000  -0.000   4.179  -0.000  -0.000   7.788  -0.000
  0.000   0.000   0.000  -0.000   4.179   0.000  -0.000   7.788
  0.000   0.000   7.788  -0.000   0.000  14.522  -0.000   0.000
 -0.000  -0.000  -0.000   7.788  -0.000  -0.000  14.522  -0.000
  0.000   0.000   0.000  -0.000   7.788   0.000  -0.000  14.522
 total augmentation occupancy for first ion, spin component:           1
  5.646  -2.129  -0.000   0.000   0.000   0.000   0.000   0.000
 -2.129   0.919   0.000  -0.000  -0.000  -0.000   0.000  -0.000
  0.000  -0.000   2.956   0.000   0.000  -0.665  -0.000  -0.000
 -0.000  -0.000   0.000   2.956   0.000  -0.000  -0.665  -0.000
 -0.000   0.000   0.000   0.000   2.956  -0.000  -0.000  -0.665
 -0.000   0.000  -0.665  -0.000  -0.000   0.158   0.000   0.000
  0.000   0.000  -0.000  -0.665  -0.000  -0.000   0.158   0.000
  0.000  -0.000  -0.000  -0.000  -0.665   0.000   0.000   0.158


------------------------ aborting loop because EDIFF is reached ----------------------------------------


    CHARGE:  cpu time      0.0068: real time      0.0069
    FORLOC:  cpu time      0.0002: real time      0.0003
    FORNL :  cpu time      0.0066: real time      0.0067
    STRESS:  cpu time      0.0227: real time      0.0228
    FORCOR:  cpu time      0.0057: real time      0.0058
    FORHAR:  cpu time      0.0013: real time      0.0013
    MIXING:  cpu time      0.0003: real time      0.0003
    OFIELD:  cpu time      0.0000: real time      0.0000

  FORCE on cell =-STRESS in cart. coord.  units (eV):
  Direction    XX          YY          ZZ          XY          YZ          ZX
  --------------------------------------------------------------------------------------
  Alpha Z     3.33881     3.33881     3.33881
  Ewald     -75.99608   -75.99616   -75.99607     0.00001     0.00000    -0.00000
  Hartree     5.00270     5.00270     5.00270     0.00000     0.00000     0.00000
  E(xc)     -25.32529   -25.32529   -25.32529     0.00000     0.00000     0.00000
  Local     -29.31732   -29.31730   -29.31731    -0.00000     0.00000     0.00000
  n-local    74.05060    77.45883    81.59623    -0.90325    -0.87489    -0.03194
  augment   -11.65194   -11.65194   -11.65195    -0.00000    -0.00000    -0.00000
  Kinetic    53.42822    55.30759    60.95586     0.92456     1.26167    -0.55982
  Fock        0.00000     0.00000     0.00000     0.00000     0.00000     0.00000
  -------------------------------------------------------------------------------------
  Total       0.31663     0.31663     0.31663     0.00000     0.00000     0.00000
  in kB      12.57890    12.57891    12.57890     0.00000     0.00000     0.00000
  external pressure =       12.58 kB  Pullay stress =        0.00 kB


 VOLUME and BASIS-vectors are now :
 -----------------------------------------------------------------------------
  energy-cutoff  :      520.00
  volume of cell :       40.33
      direct lattice vectors                 reciprocal lattice vectors
     3.333573000  0.000000000  1.924639000     0.299978432 -0.106058350  0.000000000
     1.111191000  3.142924000  1.924639000     0.000000000  0.318175050  0.000000000
     0.000000000  0.000000000  3.849278000    -0.149989216 -0.106058350  0.259788979

  length of vectors
     3.849278403  3.849279412  3.849278000     0.318175161  0.318175050  0.318175190


 FORCES acting on ions
    electron-ion (+dipol)            ewald-force                    non-local-force                 convergence-correction
 -----------------------------------------------------------------------------------------------
   0.518E-05 0.243E-04 -.257E-07   -.892E-05 -.418E-04 0.782E-16   -.781E-16 -.763E-16 -.444E-15   -.104E-08 0.109E-08 -.260E-08
   -.518E-05 -.243E-04 0.257E-07   0.892E-05 0.418E-04 -.194E-15   0.121E-16 0.208E-16 0.444E-15   0.104E-08 -.109E-08 0.260E-08
 -----------------------------------------------------------------------------------------------
   0.179E-12 -.467E-13 -.137E-13   -.365E-15 -.270E-16 -.116E-15   -.659E-16 -.555E-16 0.000E+00   -.148E-14 0.229E-16 -.177E-14
 
 
 POSITION                                       TOTAL-FORCE (eV/Angst)
 -----------------------------------------------------------------------------------
      3.88917      2.75006      6.73624        -0.000000      0.000000      0.000000
      0.55560      0.39287      0.96232         0.000000     -0.000000     -0.000000
 -----------------------------------------------------------------------------------
    total drift:                                0.000000     -0.000000     -0.000000


--------------------------------------------------------------------------------------------------------



  FREE ENERGIE OF THE ION-ELECTRON SYSTEM (eV)
  ---------------------------------------------------
  free  energy   TOTEN  =       -10.84742631 eV

  energy  without entropy=      -10.84742631  energy(sigma->0) =      -10.84742631
 


--------------------------------------------------------------------------------------------------------


    POTLOK:  cpu time      0.0067: real time      0.0067


--------------------------------------------------------------------------------------------------------


     LOOP+:  cpu time      1.5970: real time      1.6850
    4ORBIT:  cpu time      0.0000: real time      0.0000
 BZINTS: Fermi energy:    5.823965;    8.000000 electrons
         Band energy: 0.570420E+01;  BLOECHL correction:    0.000000

 total amount of memory used by VASP MPI-rank0    32486. kBytes
=======================================================================

   base      :      30000. kBytes
   nonl-proj :        506. kBytes
   fftplans  :        595. kBytes
   grid      :        852. kBytes
   one-center:          3. kBytes
   wavefun   :        530. kBytes
 
  
  
 General timing and accounting informations for this job:
 ========================================================
  
                  Total CPU time used (sec):        2.242
                            User time (sec):        1.896
                          System time (sec):        0.345
                         Elapsed time (sec):        7.811
  
                   Maximum memory used (kb):      165648.
                   Average memory used (kb):          N/A
  
                          Minor page faults:        10803
                          Major page faults:          400
                 Voluntary context switches:        32466
