<?xml version="1.0" encoding="ISO-8859-1"?>
<modeling>
 <generator>
  <i name="program" type="string">vasp </i>
  <i name="version" type="string">6.4.3  </i>
  <i name="subversion" type="string">19Mar24 (build Mar 28 2025 17:57:14) complex                          parallel </i>
  <i name="platform" type="string">LinuxIFC </i>
  <i name="date" type="string">2026 05 09 </i>
  <i name="time" type="string">14:02:18 </i>
 </generator>
 <incar>
  <i type="string" name="SYSTEM">Si diamond primitive cell - SCF energy</i>
  <i type="string" name="PREC">Accurate</i>
  <i type="string" name="ALGO">Normal</i>
  <i type="int" name="NELM">   100</i>
  <i type="int" name="IBRION">    -1</i>
  <i name="EDIFF">      0.00000100</i>
  <i type="int" name="NSW">     0</i>
  <i type="int" name="ISIF">     2</i>
  <i name="ENCUT">    520.00000000</i>
  <i type="logical" name="LREAL"> F  </i>
  <i type="int" name="ISMEAR">    -5</i>
  <i name="SIGMA">      0.05000000</i>
  <i type="logical" name="LWAVE"> F  </i>
  <i type="logical" name="LCHARG"> T  </i>
  <i type="string" name="GGA">PE</i>
 </incar>
 <primitive_cell>
  <structure name="primitive_cell" >
   <crystal>
    <varray name="basis" >
     <v>       3.33357300       0.00000000       1.92463900 </v>
     <v>       1.11119100       3.14292400       1.92463900 </v>
     <v>       0.00000000       0.00000000       3.84927800 </v>
    </varray>
    <i name="volume">     40.32952685 </i>
    <varray name="rec_basis" >
     <v>       0.29997843      -0.10605835       0.00000000 </v>
     <v>       0.00000000       0.31817505       0.00000000 </v>
     <v>      -0.14998922      -0.10605835       0.25978898 </v>
    </varray>
   </crystal>
   <varray name="positions" >
    <v>       0.87500000       0.87500000       0.87500000 </v>
    <v>       0.12500000       0.12500000       0.12500000 </v>
   </varray>
  </structure>
  <varray name="primitive_index" >
   <v type="int" >        1 </v>
   <v type="int" >        2 </v>
  </varray>
 </primitive_cell>
 <kpoints>
  <generation param="Monkhorst-Pack">
   <v type="int" name="divisions">      11       11       11 </v>
   <v name="usershift">      0.00000000       0.00000000       0.00000000 </v>
   <v name="genvec1">      0.09090909       0.00000000       0.00000000 </v>
   <v name="genvec2">      0.00000000       0.09090909       0.00000000 </v>
   <v name="genvec3">      0.00000000       0.00000000       0.09090909 </v>
   <v name="shift">      0.00000000       0.00000000       0.00000000 </v>
  </generation>
  <varray name="kpointlist" >
   <v>       0.00000000       0.00000000       0.00000000 </v>
   <v>       0.09090909       0.00000000       0.00000000 </v>
   <v>       0.18181818       0.00000000       0.00000000 </v>
   <v>       0.27272727       0.00000000       0.00000000 </v>
   <v>       0.36363636       0.00000000       0.00000000 </v>
   <v>       0.45454545       0.00000000       0.00000000 </v>
   <v>       0.09090909       0.09090909       0.00000000 </v>
   <v>       0.18181818       0.09090909       0.00000000 </v>
   <v>       0.27272727       0.09090909       0.00000000 </v>
   <v>       0.36363636       0.09090909       0.00000000 </v>
   <v>       0.45454545       0.09090909       0.00000000 </v>
   <v>      -0.45454545       0.09090909       0.00000000 </v>
   <v>      -0.36363636       0.09090909       0.00000000 </v>
   <v>      -0.27272727       0.09090909       0.00000000 </v>
   <v>      -0.18181818       0.09090909       0.00000000 </v>
   <v>      -0.09090909       0.09090909       0.00000000 </v>
   <v>       0.18181818       0.18181818       0.00000000 </v>
   <v>       0.27272727       0.18181818       0.00000000 </v>
   <v>       0.36363636       0.18181818       0.00000000 </v>
   <v>       0.45454545       0.18181818       0.00000000 </v>
   <v>      -0.45454545       0.18181818       0.00000000 </v>
   <v>      -0.36363636       0.18181818       0.00000000 </v>
   <v>      -0.27272727       0.18181818       0.00000000 </v>
   <v>      -0.18181818       0.18181818       0.00000000 </v>
   <v>       0.27272727       0.27272727       0.00000000 </v>
   <v>       0.36363636       0.27272727       0.00000000 </v>
   <v>       0.45454545       0.27272727       0.00000000 </v>
   <v>      -0.45454545       0.27272727       0.00000000 </v>
   <v>      -0.36363636       0.27272727       0.00000000 </v>
   <v>      -0.27272727       0.27272727       0.00000000 </v>
   <v>       0.36363636       0.36363636       0.00000000 </v>
   <v>       0.45454545       0.36363636       0.00000000 </v>
   <v>      -0.45454545       0.36363636       0.00000000 </v>
   <v>      -0.36363636       0.36363636       0.00000000 </v>
   <v>       0.45454545       0.45454545       0.00000000 </v>
   <v>      -0.45454545       0.45454545       0.00000000 </v>
   <v>       0.27272727       0.18181818       0.09090909 </v>
   <v>       0.36363636       0.18181818       0.09090909 </v>
   <v>       0.45454545       0.18181818       0.09090909 </v>
   <v>      -0.45454545       0.18181818       0.09090909 </v>
   <v>       0.36363636       0.27272727       0.09090909 </v>
   <v>       0.45454545       0.27272727       0.09090909 </v>
   <v>      -0.45454545       0.27272727       0.09090909 </v>
   <v>      -0.36363636       0.27272727       0.09090909 </v>
   <v>      -0.27272727       0.27272727       0.09090909 </v>
   <v>      -0.18181818       0.27272727       0.09090909 </v>
   <v>       0.45454545       0.36363636       0.09090909 </v>
   <v>      -0.45454545       0.36363636       0.09090909 </v>
   <v>      -0.36363636       0.36363636       0.09090909 </v>
   <v>      -0.27272727       0.36363636       0.09090909 </v>
   <v>      -0.45454545       0.45454545       0.09090909 </v>
   <v>      -0.36363636       0.45454545       0.09090909 </v>
   <v>      -0.45454545       0.36363636       0.18181818 </v>
   <v>      -0.36363636       0.36363636       0.18181818 </v>
   <v>      -0.36363636       0.45454545       0.18181818 </v>
   <v>      -0.27272727       0.45454545       0.18181818 </v>
  </varray>
  <varray name="weights" >
   <v>       0.00075131 </v>
   <v>       0.00601052 </v>
   <v>       0.00601052 </v>
   <v>       0.00601052 </v>
   <v>       0.00601052 </v>
   <v>       0.00601052 </v>
   <v>       0.00450789 </v>
   <v>       0.01803156 </v>
   <v>       0.01803156 </v>
   <v>       0.01803156 </v>
   <v>       0.01803156 </v>
   <v>       0.01803156 </v>
   <v>       0.01803156 </v>
   <v>       0.01803156 </v>
   <v>       0.01803156 </v>
   <v>       0.00901578 </v>
   <v>       0.00450789 </v>
   <v>       0.01803156 </v>
   <v>       0.01803156 </v>
   <v>       0.01803156 </v>
   <v>       0.01803156 </v>
   <v>       0.01803156 </v>
   <v>       0.01803156 </v>
   <v>       0.00901578 </v>
   <v>       0.00450789 </v>
   <v>       0.01803156 </v>
   <v>       0.01803156 </v>
   <v>       0.01803156 </v>
   <v>       0.01803156 </v>
   <v>       0.00901578 </v>
   <v>       0.00450789 </v>
   <v>       0.01803156 </v>
   <v>       0.01803156 </v>
   <v>       0.00901578 </v>
   <v>       0.00450789 </v>
   <v>       0.00901578 </v>
   <v>       0.01803156 </v>
   <v>       0.03606311 </v>
   <v>       0.03606311 </v>
   <v>       0.03606311 </v>
   <v>       0.01803156 </v>
   <v>       0.03606311 </v>
   <v>       0.03606311 </v>
   <v>       0.03606311 </v>
   <v>       0.03606311 </v>
   <v>       0.01803156 </v>
   <v>       0.01803156 </v>
   <v>       0.03606311 </v>
   <v>       0.03606311 </v>
   <v>       0.01803156 </v>
   <v>       0.01803156 </v>
   <v>       0.01803156 </v>
   <v>       0.01803156 </v>
   <v>       0.03606311 </v>
   <v>       0.01803156 </v>
   <v>       0.01803156 </v>
  </varray>
  <varray name="tetrahedronlist"  type="int" >
   <v type="int" >       48        2        3        8       16 </v>
   <v type="int" >       48        8       15       16       37 </v>
   <v type="int" >       24       15       15       16       37 </v>
   <v type="int" >       48        3        8       15       16 </v>
   <v type="int" >       48       15       24       37       38 </v>
   <v type="int" >       48       14       15       24       38 </v>
   <v type="int" >       24       15       15       24       37 </v>
   <v type="int" >       48       14       23       38       39 </v>
   <v type="int" >       48       13       14       23       39 </v>
   <v type="int" >       48       14       23       24       38 </v>
   <v type="int" >       48       13       22       39       40 </v>
   <v type="int" >       48       12       13       22       40 </v>
   <v type="int" >       48       13       22       23       39 </v>
   <v type="int" >       48       12       21       40       40 </v>
   <v type="int" >       48       11       12       21       40 </v>
   <v type="int" >       48       12       21       22       40 </v>
   <v type="int" >       48       11       20       39       40 </v>
   <v type="int" >       48       10       11       20       39 </v>
   <v type="int" >       48       11       20       21       40 </v>
   <v type="int" >       48       10       19       38       39 </v>
   <v type="int" >       48        9       10       19       38 </v>
   <v type="int" >       48       10       19       20       39 </v>
   <v type="int" >       48        9       18       37       38 </v>
   <v type="int" >       48        8        9       18       37 </v>
   <v type="int" >       48        9       18       19       38 </v>
   <v type="int" >       24        8        8       17       37 </v>
   <v type="int" >       24        7        8        8       17 </v>
   <v type="int" >       48        8       17       18       37 </v>
   <v type="int" >       24        7        8        8       16 </v>
   <v type="int" >       48        2        7        8       16 </v>
   <v type="int" >       48        8        9       15       37 </v>
   <v type="int" >       48        3        8        9       15 </v>
   <v type="int" >       48       18       37       38       41 </v>
   <v type="int" >       24       37       38       38       41 </v>
   <v type="int" >       24       24       37       38       38 </v>
   <v type="int" >       48        9       15       37       38 </v>
   <v type="int" >       48       38       41       42       46 </v>
   <v type="int" >       48       38       39       42       46 </v>
   <v type="int" >       48       23       38       39       46 </v>
   <v type="int" >       24       38       38       41       46 </v>
   <v type="int" >       24       24       38       38       46 </v>
   <v type="int" >       48       23       24       38       46 </v>
   <v type="int" >       48       39       42       43       45 </v>
   <v type="int" >       48       39       40       43       45 </v>
   <v type="int" >       48       22       39       40       45 </v>
   <v type="int" >       48       39       42       45       46 </v>
   <v type="int" >       48       23       39       45       46 </v>
   <v type="int" >       48       22       23       39       45 </v>
   <v type="int" >       48       40       43       44       44 </v>
   <v type="int" >       24       40       40       44       44 </v>
   <v type="int" >       48       21       40       40       44 </v>
   <v type="int" >       48       40       43       44       45 </v>
   <v type="int" >       48       22       40       44       45 </v>
   <v type="int" >       48       21       22       40       44 </v>
   <v type="int" >       48       20       39       40       43 </v>
   <v type="int" >       48       21       40       43       44 </v>
   <v type="int" >       48       20       21       40       43 </v>
   <v type="int" >       48       19       38       39       42 </v>
   <v type="int" >       48       20       39       42       43 </v>
   <v type="int" >       48       19       20       39       42 </v>
   <v type="int" >       48       19       38       41       42 </v>
   <v type="int" >       48       18       19       38       41 </v>
   <v type="int" >       24       18       18       37       41 </v>
   <v type="int" >       24       17       18       18       37 </v>
   <v type="int" >       24        8        8       16       37 </v>
   <v type="int" >       48       18       19       26       41 </v>
   <v type="int" >       48       26       41       42       47 </v>
   <v type="int" >       24       41       42       42       47 </v>
   <v type="int" >       24       41       42       42       46 </v>
   <v type="int" >       48       19       26       41       42 </v>
   <v type="int" >       48       42       47       48       53 </v>
   <v type="int" >       48       42       43       48       53 </v>
   <v type="int" >       48       42       43       45       53 </v>
   <v type="int" >       24       42       42       47       53 </v>
   <v type="int" >       24       42       42       46       53 </v>
   <v type="int" >       48       42       45       46       53 </v>
   <v type="int" >       48       43       48       49       54 </v>
   <v type="int" >       48       43       44       49       54 </v>
   <v type="int" >       48       43       44       44       54 </v>
   <v type="int" >       48       43       48       53       54 </v>
   <v type="int" >       48       43       45       53       54 </v>
   <v type="int" >       48       43       44       45       54 </v>
   <v type="int" >       48       44       49       50       54 </v>
   <v type="int" >       48       44       45       50       54 </v>
   <v type="int" >       48       44       49       54       54 </v>
   <v type="int" >       24       44       44       54       54 </v>
   <v type="int" >       24       45       45       50       53 </v>
   <v type="int" >       24       45       45       46       53 </v>
   <v type="int" >       48       45       50       53       54 </v>
   <v type="int" >       48        9       10       14       38 </v>
   <v type="int" >       48        9       14       15       38 </v>
   <v type="int" >       48       26       27       32       47 </v>
   <v type="int" >       48       26       27       42       47 </v>
   <v type="int" >       48       19       26       27       42 </v>
   <v type="int" >       48       32       47       48       51 </v>
   <v type="int" >       24       47       48       48       51 </v>
   <v type="int" >       24       47       48       48       53 </v>
   <v type="int" >       48       27       32       47       48 </v>
   <v type="int" >       48       27       42       47       48 </v>
   <v type="int" >       48       48       51       52       55 </v>
   <v type="int" >       48       48       49       52       55 </v>
   <v type="int" >       48       48       49       54       55 </v>
   <v type="int" >       24       48       48       51       55 </v>
   <v type="int" >       24       48       48       53       55 </v>
   <v type="int" >       48       48       53       54       55 </v>
   <v type="int" >       24       49       49       52       56 </v>
   <v type="int" >       24       49       49       50       56 </v>
   <v type="int" >       48       49       50       54       56 </v>
   <v type="int" >       48       49       52       55       56 </v>
   <v type="int" >       48       49       54       55       56 </v>
   <v type="int" >       48       49       54       54       56 </v>
   <v type="int" >       24       50       54       54       56 </v>
   <v type="int" >       24       50       53       54       54 </v>
   <v type="int" >       48       10       11       13       39 </v>
   <v type="int" >       48       10       13       14       39 </v>
   <v type="int" >       48       10       14       38       39 </v>
   <v type="int" >       48       32       33       36       51 </v>
   <v type="int" >       48       32       33       48       51 </v>
   <v type="int" >       48       27       32       33       48 </v>
   <v type="int" >       24       36       51       51       52 </v>
   <v type="int" >       12       51       51       52       52 </v>
   <v type="int" >       24       51       52       52       55 </v>
   <v type="int" >       48       33       36       51       52 </v>
   <v type="int" >       48       33       48       51       52 </v>
   <v type="int" >       12       52       52       55       55 </v>
   <v type="int" >       24       52       55       55       56 </v>
   <v type="int" >       48       11       12       12       40 </v>
   <v type="int" >       48       11       12       13       40 </v>
   <v type="int" >       48       11       13       39       40 </v>
   <v type="int" >       24       33       33       36       52 </v>
   <v type="int" >       24       12       12       40       40 </v>
   <v type="int" >       24        2        2        7       16 </v>
   <v type="int" >       48        3        4        9       15 </v>
   <v type="int" >       48        4        9       14       15 </v>
   <v type="int" >       24       23       23       24       46 </v>
   <v type="int" >       48       23       30       45       46 </v>
   <v type="int" >       48       22       23       30       45 </v>
   <v type="int" >       24       23       23       30       46 </v>
   <v type="int" >       48       22       29       44       45 </v>
   <v type="int" >       48       21       22       29       44 </v>
   <v type="int" >       48       22       29       30       45 </v>
   <v type="int" >       48       21       28       43       44 </v>
   <v type="int" >       48       20       21       28       43 </v>
   <v type="int" >       48       21       28       29       44 </v>
   <v type="int" >       48       20       27       42       43 </v>
   <v type="int" >       48       19       20       27       42 </v>
   <v type="int" >       48       20       27       28       43 </v>
   <v type="int" >       24       18       18       25       41 </v>
   <v type="int" >       24       17       18       18       25 </v>
   <v type="int" >       48       18       25       26       41 </v>
   <v type="int" >       48        4        9       10       14 </v>
   <v type="int" >       24       30       45       45       46 </v>
   <v type="int" >       48       29       44       45       50 </v>
   <v type="int" >       24       30       45       45       50 </v>
   <v type="int" >       48       29       30       45       50 </v>
   <v type="int" >       48       28       43       44       49 </v>
   <v type="int" >       48       29       44       49       50 </v>
   <v type="int" >       48       28       29       44       49 </v>
   <v type="int" >       48       27       42       43       48 </v>
   <v type="int" >       48       28       43       48       49 </v>
   <v type="int" >       48       27       28       43       48 </v>
   <v type="int" >       24       26       26       41       47 </v>
   <v type="int" >       24       25       26       26       41 </v>
   <v type="int" >       24       53       54       54       55 </v>
   <v type="int" >       48       54       55       56       56 </v>
   <v type="int" >       24       54       54       56       56 </v>
   <v type="int" >       24       54       54       55       56 </v>
   <v type="int" >       48       27       28       33       48 </v>
   <v type="int" >       48       33       48       49       52 </v>
   <v type="int" >       48       28       33       48       49 </v>
   <v type="int" >       12       55       55       56       56 </v>
   <v type="int" >       24       55       56       56       56 </v>
   <v type="int" >        6       56       56       56       56 </v>
   <v type="int" >       24       33       33       34       52 </v>
   <v type="int" >       48       33       34       49       52 </v>
   <v type="int" >       48       28       33       34       49 </v>
   <v type="int" >       24       34       49       49       52 </v>
   <v type="int" >       48        4        5       10       14 </v>
   <v type="int" >       48        5       10       13       14 </v>
   <v type="int" >       24       29       29       30       50 </v>
   <v type="int" >       48       29       34       49       50 </v>
   <v type="int" >       48       28       29       34       49 </v>
   <v type="int" >       24       29       29       34       50 </v>
   <v type="int" >       24       26       26       31       47 </v>
   <v type="int" >       24       25       26       26       31 </v>
   <v type="int" >       48       26       31       32       47 </v>
   <v type="int" >       48        5       10       11       13 </v>
   <v type="int" >       24       34       49       49       50 </v>
   <v type="int" >       24       32       32       47       51 </v>
   <v type="int" >       24       31       32       32       47 </v>
   <v type="int" >       48        5        6       11       13 </v>
   <v type="int" >       48        6       11       12       13 </v>
   <v type="int" >       24       32       32       35       51 </v>
   <v type="int" >       24       31       32       32       35 </v>
   <v type="int" >       48       32       35       36       51 </v>
   <v type="int" >       48        6       11       12       12 </v>
   <v type="int" >       12       36       36       51       51 </v>
   <v type="int" >       24       35       36       36       51 </v>
   <v type="int" >       24        6        6       12       12 </v>
   <v type="int" >       12       35       35       36       36 </v>
   <v type="int" >       24        1        2        2        7 </v>
  </varray>
  <i name="volumeweight">      0.00012522 </i>
 </kpoints>
 <parameters>
  <separator name="general" >
   <i type="string" name="SYSTEM">Si diamond primitive cell - SCF energy</i>
   <i type="logical" name="LCOMPAT"> F  </i>
  </separator>
  <separator name="electronic" >
   <i type="string" name="PREC">accura</i>
   <i name="ENMAX">    520.00000000</i>
   <i name="ENAUG">    322.06900000</i>
   <i name="EDIFF">      0.00000100</i>
   <i type="int" name="IALGO">    38</i>
   <i type="int" name="IWAVPR">    10</i>
   <i type="int" name="NBANDS">     8</i>
   <i type="int" name="NBANDSLOW">    -1</i>
   <i type="int" name="NBANDSHIGH">    -1</i>
   <i name="NELECT">      8.00000000</i>
   <i type="int" name="TURBO">     0</i>
   <i type="int" name="IRESTART">     0</i>
   <i type="int" name="NREBOOT">     0</i>
   <i type="int" name="NMIN">     0</i>
   <i name="EREF">      0.00000000</i>
   <separator name="electronic smearing" >
    <i type="int" name="ISMEAR">    -5</i>
    <i name="SIGMA">      0.05000000</i>
    <i name="KSPACING">      0.50000000</i>
    <i type="logical" name="KGAMMA"> T  </i>
    <i type="logical" name="KBLOWUP"> T  </i>
   </separator>
   <separator name="electronic projectors" >
    <i type="logical" name="LREAL"> F  </i>
    <v name="ROPT">      0.00000000</v>
    <i type="int" name="LMAXPAW">  -100</i>
    <i type="int" name="LMAXMIX">     2</i>
    <i type="logical" name="NLSPLINE"> F  </i>
   </separator>
   <separator name="electronic startup" >
    <i type="int" name="ISTART">     0</i>
    <i type="int" name="ICHARG">     2</i>
    <i type="int" name="INIWAV">     1</i>
   </separator>
   <separator name="electronic spin" >
    <i type="int" name="ISPIN">     1</i>
    <i type="logical" name="LNONCOLLINEAR"> F  </i>
    <v name="MAGMOM">      1.00000000      1.00000000</v>
    <i name="NUPDOWN">     -1.00000000</i>
    <i type="logical" name="LSORBIT"> F  </i>
    <v name="SAXIS">      0.00000000      0.00000000      1.00000000</v>
    <i type="logical" name="LSPIRAL"> F  </i>
    <v name="QSPIRAL">      0.00000000      0.00000000      0.00000000</v>
    <i type="logical" name="LZEROZ"> F  </i>
   </separator>
   <separator name="electronic exchange-correlation" >
    <i type="logical" name="LASPH"> F  </i>
   </separator>
   <separator name="electronic convergence" >
    <i type="int" name="NELM">   100</i>
    <i type="int" name="NELMDL">    -5</i>
    <i type="int" name="NELMIN">     2</i>
    <i name="ENINI">    520.00000000</i>
    <separator name="electronic convergence detail" >
     <i type="logical" name="LDIAG"> T  </i>
     <i type="logical" name="LSUBROT"> F  </i>
     <i name="WEIMIN">      0.00000000</i>
     <i name="EBREAK">      0.00000003</i>
     <i name="DEPER">      0.30000000</i>
     <i type="int" name="NRMM">     4</i>
     <i name="TIME">      0.40000000</i>
    </separator>
   </separator>
   <separator name="electronic mixer" >
    <i name="AMIX">      0.40000000</i>
    <i name="BMIX">      1.00000000</i>
    <i name="AMIN">      0.10000000</i>
    <i name="AMIX_MAG">      1.60000000</i>
    <i name="BMIX_MAG">      1.00000000</i>
    <separator name="electronic mixer details" >
     <i type="int" name="IMIX">     4</i>
     <i type="logical" name="MIXFIRST"> F  </i>
     <i type="int" name="MAXMIX">   -45</i>
     <i name="WC">    100.00000000</i>
     <i type="int" name="INIMIX">     1</i>
     <i type="int" name="MIXPRE">     1</i>
     <i type="int" name="MREMOVE">     5</i>
    </separator>
   </separator>
   <separator name="electronic dipolcorrection" >
    <i type="logical" name="LDIPOL"> F  </i>
    <i type="logical" name="LMONO"> F  </i>
    <i type="int" name="IDIPOL">     0</i>
    <i name="EPSILON">      1.00000000</i>
    <v name="DIPOL">   -100.00000000   -100.00000000   -100.00000000</v>
    <i name="EFIELD">      0.00000000</i>
    <i type="logical" name="LVACPOTAV"> F  </i>
   </separator>
  </separator>
  <separator name="grids" >
   <i type="int" name="NGX">    30</i>
   <i type="int" name="NGY">    30</i>
   <i type="int" name="NGZ">    30</i>
   <i type="int" name="NGXF">    60</i>
   <i type="int" name="NGYF">    60</i>
   <i type="int" name="NGZF">    60</i>
   <i type="logical" name="ADDGRID"> F  </i>
  </separator>
  <separator name="ionic" >
   <i type="int" name="NSW">     0</i>
   <i type="int" name="IBRION">    -1</i>
   <i type="int" name="MDALGO">     0</i>
   <i type="int" name="ISIF">     2</i>
   <i name="PSTRESS">      0.00000000</i>
   <i name="EDIFFG">      0.00001000</i>
   <i type="int" name="NFREE">     0</i>
   <i name="POTIM">      0.50000000</i>
   <i name="SMASS">     -3.00000000</i>
   <i name="SCALEE">      1.00000000</i>
  </separator>
  <separator name="ionic md" >
   <i name="TEBEG">      0.00010000</i>
   <i name="TEEND">      0.00010000</i>
   <i type="int" name="NBLOCK">     1</i>
   <i type="int" name="KBLOCK">     1</i>
   <i type="int" name="NPACO">   256</i>
   <i name="APACO">     10.00000000</i>
  </separator>
  <separator name="symmetry" >
   <i type="int" name="ISYM">     2</i>
   <i name="SYMPREC">      0.00001000</i>
  </separator>
  <separator name="dos" >
   <i type="int" name="LORBIT">     0</i>
   <v name="RWIGS">     -1.00000000</v>
   <i type="int" name="NEDOS">   301</i>
   <i name="EMIN">     10.00000000</i>
   <i name="EMAX">    -10.00000000</i>
   <i name="EFERMI">      0.00000000</i>
  </separator>
  <separator name="writing" >
   <i type="int" name="NWRITE">     2</i>
   <i type="logical" name="LWAVE"> F  </i>
   <i type="logical" name="LDOWNSAMPLE"> F  </i>
   <i type="logical" name="LCHARG"> T  </i>
   <i type="logical" name="LPARD"> F  </i>
   <i type="logical" name="LVTOT"> F  </i>
   <i type="logical" name="LVHAR"> F  </i>
   <i type="logical" name="LELF"> F  </i>
   <i type="logical" name="LOPTICS"> F  </i>
   <v name="STM">      0.00000000      0.00000000      0.00000000      0.00000000      0.00000000      0.00000000      0.00000000</v>
  </separator>
  <separator name="performance" >
   <i type="int" name="NPAR">     2</i>
   <i type="int" name="NSIM">     4</i>
   <i type="int" name="NBLK">    -1</i>
   <i type="logical" name="LPLANE"> T  </i>
   <i type="logical" name="LSCALAPACK"> T  </i>
   <i type="logical" name="LSCAAWARE"> F  </i>
   <i type="logical" name="LSCALU"> F  </i>
   <i type="logical" name="LASYNC"> F  </i>
   <i type="logical" name="LORBITALREAL"> F  </i>
  </separator>
  <separator name="miscellaneous" >
   <i type="int" name="IDIOT">     3</i>
   <i type="int" name="PHON_NSTRUCT">    -1</i>
   <i type="logical" name="LMUSIC"> F  </i>
   <v name="POMASS">     28.08500000</v>
   <v name="DARWINR">      0.00000000</v>
   <v name="DARWINV">      1.00000000</v>
   <i type="logical" name="LCORR"> T  </i>
  </separator>
  <i type="logical" name="GGA_COMPAT"> T  </i>
  <i type="logical" name="LBERRY"> F  </i>
  <i type="int" name="ICORELEVEL">     0</i>
  <i type="logical" name="LDAU"> F  </i>
  <i type="int" name="I_CONSTRAINED_M">     0</i>
  <separator name="electronic exchange-correlation" >
   <i type="string" name="GGA    ">PE</i>
   <i type="string" name="XC_C">1</i>
   <i type="int" name="VOSKOWN">     0</i>
   <i type="logical" name="LHFCALC"> F  </i>
   <i type="string" name="PRECFOCK"></i>
   <i type="logical" name="LSYMGRAD"> F  </i>
   <i type="logical" name="LHFONE"> F  </i>
   <i type="logical" name="LRHFCALC"> F  </i>
   <i type="logical" name="LTHOMAS"> F  </i>
   <i type="logical" name="LMODELHF"> F  </i>
   <i type="logical" name="LFOCKACE"> F  </i>
   <i name="ENCUT4O">     -1.00000000</i>
   <i type="int" name="EXXOEP">     0</i>
   <i type="int" name="FOURORBIT">     0</i>
   <i name="AEXX">      0.00000000</i>
   <i name="HFALPHA">      0.00000000</i>
   <i name="MCALPHA">      0.00000000</i>
   <i name="ALDAX">      1.00000000</i>
   <i name="AGGAX">      1.00000000</i>
   <i name="AMGGAX">      1.00000000</i>
   <i name="ALDAC">      1.00000000</i>
   <i name="AGGAC">      1.00000000</i>
   <i name="AMGGAC">      1.00000000</i>
   <i type="int" name="NKREDX">     1</i>
   <i type="int" name="NKREDY">     1</i>
   <i type="int" name="NKREDZ">     1</i>
   <i type="logical" name="SHIFTRED"> F  </i>
   <i type="logical" name="ODDONLY"> F  </i>
   <i type="logical" name="EVENONLY"> F  </i>
   <i type="int" name="LMAXFOCK">     0</i>
   <i type="int" name="NMAXFOCKAE">     0</i>
   <i type="logical" name="LFOCKAEDFT"> F  </i>
   <i name="HFSCREEN">      0.00000000</i>
   <i name="HFSCREENC">      0.00000000</i>
   <i type="int" name="NBANDSGWLOW">     0</i>
  </separator>
  <separator name="vdW DFT" >
   <i type="logical" name="LUSE_VDW"> F  </i>
   <i type="int" name="IVDW_NL">    -1</i>
   <i type="logical" name="LSPIN_VDW"> F  </i>
   <i name="ZAB_VDW">     -0.84910000</i>
   <i name="GAMMA_VDW">      1.39626340</i>
   <i name="ALPHA_VDW">      0.00000000</i>
   <i name="PARAM1">      0.12340000</i>
   <i name="PARAM2">      1.00000000</i>
   <i name="BPARAM">      6.30000000</i>
   <i name="CPARAM">      0.00930000</i>
  </separator>
  <separator name="model GW" >
   <i type="int" name="MODEL_GW">     0</i>
   <i name="MODEL_EPS0">     12.09885805</i>
   <i name="MODEL_ALPHA">      1.00000000</i>
  </separator>
  <separator name="linear response parameters" >
   <i type="logical" name="LEPSILON"> F  </i>
   <i type="logical" name="LRPA"> F  </i>
   <i type="logical" name="LNABLA"> F  </i>
   <i type="logical" name="LVEL"> F  </i>
   <i name="CSHIFT">      0.10000000</i>
   <i name="OMEGAMAX">     -1.00000000</i>
   <i name="DEG_THRESHOLD">      0.00200000</i>
   <i name="RTIME">     -0.10000000</i>
   <i name="WPLASMAI">      0.00000000</i>
   <v name="DFIELD">      0.00000000      0.00000000      0.00000000</v>
   <v name="WPLASMA">      0.00000000      0.00000000      0.00000000      0.00000000      0.00000000      0.00000000      0.00000000      0.00000000      0.00000000</v>
  </separator>
  <separator name="orbital magnetization" >
   <i type="logical" name="NUCIND"> F  </i>
   <v name="MAGPOS">      0.00000000      0.00000000      0.00000000</v>
   <i type="logical" name="LNICSALL"> T  </i>
   <i type="logical" name="ORBITALMAG"> F  </i>
   <i type="logical" name="LMAGBLOCH"> F  </i>
   <i type="logical" name="LCHIMAG"> F  </i>
   <i type="logical" name="LGAUGE"> T  </i>
   <i type="int" name="MAGATOM">     0</i>
   <v name="MAGDIPOL">      0.00000000      0.00000000      0.00000000</v>
   <v name="AVECCONST">      0.00000000      0.00000000      0.00000000</v>
  </separator>
  <separator name="response functions" >
   <i type="logical" name="LALL_IN_ONE"> F  </i>
   <i type="int" name="IALL_IN_ONE">    -1</i>
   <i type="int" name="NBANDS_WAVE">    -1</i>
   <i type="logical" name="LFINITE_TEMPERATURE"> F  </i>
   <i type="logical" name="LADDER"> F  </i>
   <i type="logical" name="LRPAFORCE"> F  </i>
   <i type="logical" name="LFXC"> F  </i>
   <i type="logical" name="LHARTREE"> T  </i>
   <i type="int" name="IBSE">     0</i>
   <v type="int" name="KPOINT">    -1     0     0     0</v>
   <i type="logical" name="LTCTC"> F  </i>
   <i type="logical" name="LTCTE"> F  </i>
   <i type="logical" name="LTETE"> F  </i>
   <i type="logical" name="LTRIPLET"> F  </i>
   <i type="logical" name="LFXCEPS"> F  </i>
   <i type="logical" name="LFXHEG"> F  </i>
   <i type="int" name="NATURALO">     2</i>
   <i type="logical" name="LHOLEGF"> F  </i>
   <i type="logical" name="L2ORDER"> F  </i>
   <i type="logical" name="LDMP1"> F  </i>
   <i type="logical" name="LMP2LT"> F  </i>
   <i type="logical" name="LSMP2LT"> F  </i>
   <i type="logical" name="LGWLF"> F  </i>
   <i name="ENCUTGW">     -1.60000002</i>
   <i name="ENCUTGWSOFT">     -1.60000002</i>
   <i name="ENCUTLF">     -1.00000000</i>
   <i type="logical" name="ESF_SPLINES"> F  </i>
   <i name="ESF_CONV">      0.01000000</i>
   <i type="int" name="ESF_NINTER">    15</i>
   <i type="int" name="LMAXMP2">    -1</i>
   <i name="SCISSOR">      0.00000000</i>
   <i type="int" name="NOMEGA">     0</i>
   <i type="int" name="NOMEGAR">     0</i>
   <i type="int" name="NBANDSGW">    -1</i>
   <i type="int" name="NBANDSO">    -1</i>
   <i type="int" name="NBANDSV">    -1</i>
   <i type="int" name="NELMGW">     1</i>
   <i type="int" name="NELMHF">     1</i>
   <i type="int" name="DIM">     3</i>
   <i type="int" name="IESPILON">     4</i>
   <i type="int" name="ANTIRES">     0</i>
   <i name="OMEGAMAX">    -30.00000000</i>
   <i name="OMEGAMIN">    -30.00000000</i>
   <i name="OMEGATL">   -200.00000000</i>
   <i type="int" name="OMEGAGRID">     0</i>
   <i name="CSHIFT">     -0.10000000</i>
   <i type="logical" name="LSELFENERGY"> F  </i>
   <i type="logical" name="LSPECTRAL"> F  </i>
   <i type="logical" name="LSPECTRALGW"> F  </i>
   <i type="logical" name="LSINGLES"> F  </i>
   <i type="logical" name="LFERMIGW"> F  </i>
   <i type="logical" name="ODDONLYGW"> F  </i>
   <i type="logical" name="EVENONLYGW"> F  </i>
   <i type="int" name="NKREDLFX">     1</i>
   <i type="int" name="NKREDLFY">     1</i>
   <i type="int" name="NKREDLFZ">     1</i>
   <i type="int" name="MAXMEM">  2800</i>
   <i type="int" name="TELESCOPE">     0</i>
   <i type="int" name="NTAUPAR">    -1</i>
   <i type="int" name="NOMEGAPAR">    -1</i>
   <i name="DAMP_NEWTON">      0.80000001</i>
   <i name="LAMBDA">      1.00000000</i>
  </separator>
  <separator name="External order field" >
   <i name="OFIELD_KAPPA">      0.00000000</i>
   <v name="OFIELD_K">      0.00000000      0.00000000      0.00000000</v>
   <i name="OFIELD_Q6_NEAR">      0.00000000</i>
   <i name="OFIELD_Q6_FAR">      0.00000000</i>
   <i name="OFIELD_A">      0.00000000</i>
  </separator>
  <separator name="optional k-points parameters" >
   <i type="int" name="KPOINTS_OPT_MODE">     1</i>
   <i type="logical" name="LKPOINTS_OPT"> F  </i>
  </separator>
 </parameters>
 <atominfo>
  <atoms>       2 </atoms>
  <types>       1 </types>
  <array name="atoms" >
   <dimension dim="1">ion</dimension>
   <field type="string">element</field>
   <field type="int">atomtype</field>
   <set>
    <rc><c>Si</c><c>   1</c></rc>
    <rc><c>Si</c><c>   1</c></rc>
   </set>
  </array>
  <array name="atomtypes" >
   <dimension dim="1">type</dimension>
   <field type="int">atomspertype</field>
   <field type="string">element</field>
   <field>mass</field>
   <field>valence</field>
   <field type="string">pseudopotential</field>
   <set>
    <rc><c>   2</c><c>Si</c><c>     28.08500000</c><c>      4.00000000</c><c>  PAW_PBE Si 05Jan2001                  </c></rc>
   </set>
  </array>
 </atominfo>
 <structure name="initialpos" >
  <crystal>
   <varray name="basis" >
    <v>       3.33357300       0.00000000       1.92463900 </v>
    <v>       1.11119100       3.14292400       1.92463900 </v>
    <v>       0.00000000       0.00000000       3.84927800 </v>
   </varray>
   <i name="volume">     40.32952685 </i>
   <varray name="rec_basis" >
    <v>       0.29997843      -0.10605835       0.00000000 </v>
    <v>       0.00000000       0.31817505       0.00000000 </v>
    <v>      -0.14998922      -0.10605835       0.25978898 </v>
   </varray>
  </crystal>
  <varray name="positions" >
   <v>       0.87500000       0.87500000       0.87500000 </v>
   <v>       0.12500000       0.12500000       0.12500000 </v>
  </varray>
 </structure>
 <calculation>
  <scstep>
   <time name="dav">    0.09    0.12</time>
   <time name="total">    0.10    0.14</time>
   <energy>
    <i name="alphaZ">      3.33880741 </i>
    <i name="ewald">   -227.98820643 </i>
    <i name="hartreedc">    -11.11484531 </i>
    <i name="XCdc">    -18.63153808 </i>
    <i name="pawpsdc">    176.24759923 </i>
    <i name="pawaedc">   -141.06103558 </i>
    <i name="eentropy">      0.00000000 </i>
    <i name="bandstr">     17.97871024 </i>
    <i name="atom">    206.13270273 </i>
    <i name="e_fr_energy">      4.90219421 </i>
    <i name="e_wo_entrp">      4.90219421 </i>
    <i name="e_0_energy">      4.90219421 </i>
   </energy>
  </scstep>
  <scstep>
   <time name="dav">    0.14    0.14</time>
   <time name="total">    0.14    0.14</time>
   <energy>
    <i name="e_fr_energy">    -10.84596461 </i>
    <i name="e_wo_entrp">    -10.84596461 </i>
    <i name="e_0_energy">    -10.84596461 </i>
   </energy>
  </scstep>
  <scstep>
   <time name="dav">    0.12    0.12</time>
   <time name="total">    0.12    0.12</time>
   <energy>
    <i name="e_fr_energy">    -11.02267708 </i>
    <i name="e_wo_entrp">    -11.02267708 </i>
    <i name="e_0_energy">    -11.02267708 </i>
   </energy>
  </scstep>
  <scstep>
   <time name="dav">    0.15    0.15</time>
   <time name="total">    0.15    0.15</time>
   <energy>
    <i name="e_fr_energy">    -11.02336260 </i>
    <i name="e_wo_entrp">    -11.02336260 </i>
    <i name="e_0_energy">    -11.02336260 </i>
   </energy>
  </scstep>
  <scstep>
   <time name="dav">    0.12    0.12</time>
   <time name="total">    0.13    0.13</time>
   <energy>
    <i name="e_fr_energy">    -11.02336316 </i>
    <i name="e_wo_entrp">    -11.02336316 </i>
    <i name="e_0_energy">    -11.02336316 </i>
   </energy>
  </scstep>
  <scstep>
   <time name="dav">    0.11    0.11</time>
   <time name="total">    0.12    0.12</time>
   <energy>
    <i name="e_fr_energy">    -10.90176887 </i>
    <i name="e_wo_entrp">    -10.90176887 </i>
    <i name="e_0_energy">    -10.90176887 </i>
   </energy>
  </scstep>
  <scstep>
   <time name="dav">    0.11    0.11</time>
   <time name="total">    0.13    0.13</time>
   <energy>
    <i name="e_fr_energy">    -10.84613019 </i>
    <i name="e_wo_entrp">    -10.84613019 </i>
    <i name="e_0_energy">    -10.84613019 </i>
   </energy>
  </scstep>
  <scstep>
   <time name="dav">    0.10    0.10</time>
   <time name="total">    0.12    0.12</time>
   <energy>
    <i name="e_fr_energy">    -10.84720822 </i>
    <i name="e_wo_entrp">    -10.84720822 </i>
    <i name="e_0_energy">    -10.84720822 </i>
   </energy>
  </scstep>
  <scstep>
   <time name="dav">    0.13    0.13</time>
   <time name="total">    0.15    0.15</time>
   <energy>
    <i name="e_fr_energy">    -10.84740059 </i>
    <i name="e_wo_entrp">    -10.84740059 </i>
    <i name="e_0_energy">    -10.84740059 </i>
   </energy>
  </scstep>
  <scstep>
   <time name="dav">    0.10    0.10</time>
   <time name="total">    0.11    0.11</time>
   <energy>
    <i name="e_fr_energy">    -10.84742666 </i>
    <i name="e_wo_entrp">    -10.84742666 </i>
    <i name="e_0_energy">    -10.84742666 </i>
   </energy>
  </scstep>
  <scstep>
   <time name="dav">    0.13    0.13</time>
   <time name="total">    0.14    0.14</time>
   <energy>
    <i name="alphaZ">      3.33880741 </i>
    <i name="ewald">   -227.98820643 </i>
    <i name="hartreedc">    -15.00643952 </i>
    <i name="XCdc">    -17.99769342 </i>
    <i name="pawpsdc">    855.60481304 </i>
    <i name="pawaedc">   -820.63560592 </i>
    <i name="eentropy">      0.00000000 </i>
    <i name="bandstr">      5.70419580 </i>
    <i name="atom">    206.13270273 </i>
    <i name="e_fr_energy">    -10.84742631 </i>
    <i name="e_wo_entrp">    -10.84742631 </i>
    <i name="e_0_energy">    -10.84742631 </i>
   </energy>
  </scstep>
  <structure>
   <crystal>
    <varray name="basis" >
     <v>       3.33357300       0.00000000       1.92463900 </v>
     <v>       1.11119100       3.14292400       1.92463900 </v>
     <v>       0.00000000       0.00000000       3.84927800 </v>
    </varray>
    <i name="volume">     40.32952685 </i>
    <varray name="rec_basis" >
     <v>       0.29997843      -0.10605835       0.00000000 </v>
     <v>       0.00000000       0.31817505       0.00000000 </v>
     <v>      -0.14998922      -0.10605835       0.25978898 </v>
    </varray>
   </crystal>
   <varray name="positions" >
    <v>       0.87500000       0.87500000       0.87500000 </v>
    <v>       0.12500000       0.12500000       0.12500000 </v>
   </varray>
  </structure>
  <varray name="forces" >
   <v>      -0.00000000       0.00000000       0.00000000 </v>
   <v>       0.00000000      -0.00000000      -0.00000000 </v>
  </varray>
  <varray name="stress" >
   <v>      12.57889891      -0.00000000       0.00000000 </v>
   <v>       0.00000000      12.57890879       0.00000000 </v>
   <v>       0.00000000       0.00000000      12.57889539 </v>
  </varray>
  <energy>
   <i name="e_fr_energy">    -10.84742631 </i>
   <i name="e_wo_entrp">    -10.84742631 </i>
   <i name="e_0_energy">    -10.84742631 </i>
  </energy>
  <time name="totalsc">    1.60    1.68</time>
  <eigenvalues>
   <array>
    <dimension dim="1">band</dimension>
    <dimension dim="2">kpoint</dimension>
    <dimension dim="3">spin</dimension>
    <field>eigene</field>
    <field>occ</field>
    <set>
     <set comment="spin 1">
      <set comment="kpoint 1">
       <r>   -6.1549    1.0000 </r>
       <r>    5.7532    1.0000 </r>
       <r>    5.7532    1.0000 </r>
       <r>    5.7532    1.0000 </r>
       <r>    8.3162    0.0000 </r>
       <r>    8.3162    0.0000 </r>
       <r>    8.3162    0.0000 </r>
       <r>    9.0443    0.0000 </r>
      </set>
      <set comment="kpoint 2">
       <r>   -6.0473    1.0000 </r>
       <r>    4.7681    1.0000 </r>
       <r>    5.5869    1.0000 </r>
       <r>    5.5869    1.0000 </r>
       <r>    8.3341    0.0000 </r>
       <r>    8.5613    0.0000 </r>
       <r>    8.5613    0.0000 </r>
       <r>    9.8355    0.0000 </r>
      </set>
      <set comment="kpoint 3">
       <r>   -5.7287    1.0000 </r>
       <r>    3.0957    1.0000 </r>
       <r>    5.2480    1.0000 </r>
       <r>    5.2480    1.0000 </r>
       <r>    8.0248    0.0000 </r>
       <r>    9.0328    0.0000 </r>
       <r>    9.0328    0.0000 </r>
       <r>   11.4223    0.0000 </r>
      </set>
      <set comment="kpoint 4">
       <r>   -5.2155    1.0000 </r>
       <r>    1.4426    1.0000 </r>
       <r>    4.9259    1.0000 </r>
       <r>    4.9259    1.0000 </r>
       <r>    7.6797    0.0000 </r>
       <r>    9.2813    0.0000 </r>
       <r>    9.2813    0.0000 </r>
       <r>   12.9800    0.0000 </r>
      </set>
      <set comment="kpoint 5">
       <r>   -4.5590    1.0000 </r>
       <r>   -0.0068    1.0000 </r>
       <r>    4.6952    1.0000 </r>
       <r>    4.6952    1.0000 </r>
       <r>    7.4205    0.0000 </r>
       <r>    9.2218    0.0000 </r>
       <r>    9.2218    0.0000 </r>
       <r>   13.6324    0.0000 </r>
      </set>
      <set comment="kpoint 6">
       <r>   -3.9527    1.0000 </r>
       <r>   -1.0170    1.0000 </r>
       <r>    4.5776    1.0000 </r>
       <r>    4.5776    1.0000 </r>
       <r>    7.2855    0.0000 </r>
       <r>    9.1140    0.0000 </r>
       <r>    9.1140    0.0000 </r>
       <r>   13.4990    0.0000 </r>
      </set>
      <set comment="kpoint 7">
       <r>   -6.0112    1.0000 </r>
       <r>    4.9462    1.0000 </r>
       <r>    5.2627    1.0000 </r>
       <r>    5.2627    1.0000 </r>
       <r>    7.9977    0.0000 </r>
       <r>    8.9831    0.0000 </r>
       <r>    8.9831    0.0000 </r>
       <r>    9.7782    0.0000 </r>
      </set>
      <set comment="kpoint 8">
       <r>   -5.7622    1.0000 </r>
       <r>    3.5917    1.0000 </r>
       <r>    4.8678    1.0000 </r>
       <r>    5.0494    1.0000 </r>
       <r>    8.0332    0.0000 </r>
       <r>    9.0406    0.0000 </r>
       <r>    9.5736    0.0000 </r>
       <r>   10.6959    0.0000 </r>
      </set>
      <set comment="kpoint 9">
       <r>   -5.3113    1.0000 </r>
       <r>    1.9764    1.0000 </r>
       <r>    4.5500    1.0000 </r>
       <r>    4.6781    1.0000 </r>
       <r>    8.1567    0.0000 </r>
       <r>    9.0339    0.0000 </r>
       <r>    9.9239    0.0000 </r>
       <r>   11.1007    0.0000 </r>
      </set>
      <set comment="kpoint 10">
       <r>   -4.6929    1.0000 </r>
       <r>    0.4742    1.0000 </r>
       <r>    4.2976    1.0000 </r>
       <r>    4.3639    1.0000 </r>
       <r>    8.0042    0.0000 </r>
       <r>    9.0679    0.0000 </r>
       <r>    9.8553    0.0000 </r>
       <r>   11.8718    0.0000 </r>
      </set>
      <set comment="kpoint 11">
       <r>   -4.0273    1.0000 </r>
       <r>   -0.7132    1.0000 </r>
       <r>    4.0005    1.0000 </r>
       <r>    4.3236    1.0000 </r>
       <r>    7.8645    0.0000 </r>
       <r>    9.0256    0.0000 </r>
       <r>    9.6181    0.0000 </r>
       <r>   13.1144    0.0000 </r>
      </set>
      <set comment="kpoint 12">
       <r>   -3.7594    1.0000 </r>
       <r>   -1.1123    1.0000 </r>
       <r>    3.8234    1.0000 </r>
       <r>    4.4247    1.0000 </r>
       <r>    7.8389    0.0000 </r>
       <r>    9.0803    0.0000 </r>
       <r>    9.4328    0.0000 </r>
       <r>   13.8192    0.0000 </r>
      </set>
      <set comment="kpoint 13">
       <r>   -4.2394    1.0000 </r>
       <r>   -0.3674    1.0000 </r>
       <r>    3.7874    1.0000 </r>
       <r>    4.6511    1.0000 </r>
       <r>    7.9405    0.0000 </r>
       <r>    9.2706    0.0000 </r>
       <r>    9.3556    0.0000 </r>
       <r>   13.5096    0.0000 </r>
      </set>
      <set comment="kpoint 14">
       <r>   -4.9150    1.0000 </r>
       <r>    0.9550    1.0000 </r>
       <r>    3.9083    1.0000 </r>
       <r>    4.9740    1.0000 </r>
       <r>    8.1575    0.0000 </r>
       <r>    9.2906    0.0000 </r>
       <r>    9.4846    0.0000 </r>
       <r>   12.4559    0.0000 </r>
      </set>
      <set comment="kpoint 15">
       <r>   -5.4838    1.0000 </r>
       <r>    2.4996    1.0000 </r>
       <r>    4.2041    1.0000 </r>
       <r>    5.3370    1.0000 </r>
       <r>    8.4542    0.0000 </r>
       <r>    9.0114    0.0000 </r>
       <r>    9.3651    0.0000 </r>
       <r>   11.5768    0.0000 </r>
      </set>
      <set comment="kpoint 16">
       <r>   -5.8690    1.0000 </r>
       <r>    3.9656    1.0000 </r>
       <r>    4.7668    1.0000 </r>
       <r>    5.6108    1.0000 </r>
       <r>    8.6115    0.0000 </r>
       <r>    8.6894    0.0000 </r>
       <r>    8.7787    0.0000 </r>
       <r>   10.7077    0.0000 </r>
      </set>
      <set comment="kpoint 17">
       <r>   -5.5828    1.0000 </r>
       <r>    3.4477    1.0000 </r>
       <r>    4.4358    1.0000 </r>
       <r>    4.4358    1.0000 </r>
       <r>    7.3518    0.0000 </r>
       <r>    9.8701    0.0000 </r>
       <r>   10.3292    0.0000 </r>
       <r>   10.3292    0.0000 </r>
      </set>
      <set comment="kpoint 18">
       <r>   -5.1978    1.0000 </r>
       <r>    2.2919    1.0000 </r>
       <r>    4.0197    1.0000 </r>
       <r>    4.0940    1.0000 </r>
       <r>    7.4040    0.0000 </r>
       <r>    9.4524    0.0000 </r>
       <r>   10.6140    0.0000 </r>
       <r>   10.9115    0.0000 </r>
      </set>
      <set comment="kpoint 19">
       <r>   -4.6298    1.0000 </r>
       <r>    0.9240    1.0000 </r>
       <r>    3.4896    1.0000 </r>
       <r>    3.8981    1.0000 </r>
       <r>    7.6390    0.0000 </r>
       <r>    9.8127    0.0000 </r>
       <r>   10.4137    0.0000 </r>
       <r>   10.9885    0.0000 </r>
      </set>
      <set comment="kpoint 20">
       <r>   -3.9534    1.0000 </r>
       <r>   -0.3089    1.0000 </r>
       <r>    3.0146    1.0000 </r>
       <r>    3.8659    1.0000 </r>
       <r>    7.6778    0.0000 </r>
       <r>   10.1904    0.0000 </r>
       <r>   10.7332    0.0000 </r>
       <r>   11.0223    0.0000 </r>
      </set>
      <set comment="kpoint 21">
       <r>   -3.4737    1.0000 </r>
       <r>   -1.0152    1.0000 </r>
       <r>    2.6801    1.0000 </r>
       <r>    3.9964    1.0000 </r>
       <r>    7.7776    0.0000 </r>
       <r>   10.0612    0.0000 </r>
       <r>   10.4424    0.0000 </r>
       <r>   12.6468    0.0000 </r>
      </set>
      <set comment="kpoint 22">
       <r>   -3.7572    1.0000 </r>
       <r>   -0.6059    1.0000 </r>
       <r>    2.5275    1.0000 </r>
       <r>    4.2734    1.0000 </r>
       <r>    8.0300    0.0000 </r>
       <r>   10.0502    0.0000 </r>
       <r>   10.2199    0.0000 </r>
       <r>   13.4783    0.0000 </r>
      </set>
      <set comment="kpoint 23">
       <r>   -4.4251    1.0000 </r>
       <r>    0.5063    1.0000 </r>
       <r>    2.6087    1.0000 </r>
       <r>    4.6591    1.0000 </r>
       <r>    8.3983    0.0000 </r>
       <r>    9.9799    0.0000 </r>
       <r>   10.0996    0.0000 </r>
       <r>   12.0900    0.0000 </r>
      </set>
      <set comment="kpoint 24">
       <r>   -5.0384    1.0000 </r>
       <r>    1.6938    1.0000 </r>
       <r>    3.0899    1.0000 </r>
       <r>    5.0713    1.0000 </r>
       <r>    8.7289    0.0000 </r>
       <r>    9.4934    0.0000 </r>
       <r>    9.7899    0.0000 </r>
       <r>   11.4124    0.0000 </r>
      </set>
      <set comment="kpoint 25">
       <r>   -4.8782    1.0000 </r>
       <r>    1.8313    1.0000 </r>
       <r>    3.7177    1.0000 </r>
       <r>    3.7177    1.0000 </r>
       <r>    6.7620    0.0000 </r>
       <r>    8.5546    0.0000 </r>
       <r>   11.8893    0.0000 </r>
       <r>   11.8893    0.0000 </r>
      </set>
      <set comment="kpoint 26">
       <r>   -4.3674    1.0000 </r>
       <r>    0.8795    1.0000 </r>
       <r>    3.1829    1.0000 </r>
       <r>    3.4871    1.0000 </r>
       <r>    6.8938    0.0000 </r>
       <r>    8.2657    0.0000 </r>
       <r>   12.1792    0.0000 </r>
       <r>   12.3520    0.0000 </r>
      </set>
      <set comment="kpoint 27">
       <r>   -3.7112    1.0000 </r>
       <r>   -0.1463    1.0000 </r>
       <r>    2.4591    1.0000 </r>
       <r>    3.4261    1.0000 </r>
       <r>    7.0918    0.0000 </r>
       <r>    9.0181    0.0000 </r>
       <r>   12.0215    0.0000 </r>
       <r>   12.2134    0.0000 </r>
      </set>
      <set comment="kpoint 28">
       <r>   -3.1003    1.0000 </r>
       <r>   -0.9450    1.0000 </r>
       <r>    1.8887    1.0000 </r>
       <r>    3.5381    1.0000 </r>
       <r>    7.2255    0.0000 </r>
       <r>   10.4912    0.0000 </r>
       <r>   11.8567    0.0000 </r>
       <r>   11.8858    0.0000 </r>
      </set>
      <set comment="kpoint 29">
       <r>   -3.1561    1.0000 </r>
       <r>   -0.8659    1.0000 </r>
       <r>    1.6048    1.0000 </r>
       <r>    3.8115    1.0000 </r>
       <r>    7.5149    0.0000 </r>
       <r>   11.5378    0.0000 </r>
       <r>   11.5570    0.0000 </r>
       <r>   12.4676    0.0000 </r>
      </set>
      <set comment="kpoint 30">
       <r>   -3.7876    1.0000 </r>
       <r>   -0.1094    1.0000 </r>
       <r>    1.7649    1.0000 </r>
       <r>    4.2122    1.0000 </r>
       <r>    7.9594    0.0000 </r>
       <r>   10.9451    0.0000 </r>
       <r>   11.2849    0.0000 </r>
       <r>   12.1545    0.0000 </r>
      </set>
      <set comment="kpoint 31">
       <r>   -3.9131    1.0000 </r>
       <r>    0.2195    1.0000 </r>
       <r>    3.2135    1.0000 </r>
       <r>    3.2135    1.0000 </r>
       <r>    6.4052    0.0000 </r>
       <r>    7.4204    0.0000 </r>
       <r>   13.5473    0.0000 </r>
       <r>   13.5473    0.0000 </r>
      </set>
      <set comment="kpoint 32">
       <r>   -3.2942    1.0000 </r>
       <r>   -0.5920    1.0000 </r>
       <r>    2.6813    1.0000 </r>
       <r>    3.1088    1.0000 </r>
       <r>    6.6125    0.0000 </r>
       <r>    7.4358    0.0000 </r>
       <r>   13.8723    0.0000 </r>
       <r>   13.8787    0.0000 </r>
      </set>
      <set comment="kpoint 33">
       <r>   -2.6233    1.0000 </r>
       <r>   -1.3061    1.0000 </r>
       <r>    1.9064    1.0000 </r>
       <r>    3.1816    1.0000 </r>
       <r>    6.7813    0.0000 </r>
       <r>    8.6184    0.0000 </r>
       <r>   13.5878    0.0000 </r>
       <r>   13.7476    0.0000 </r>
      </set>
      <set comment="kpoint 34">
       <r>   -2.5593    1.0000 </r>
       <r>   -1.3381    1.0000 </r>
       <r>    1.4234    1.0000 </r>
       <r>    3.4249    1.0000 </r>
       <r>    7.0585    0.0000 </r>
       <r>   10.3354    0.0000 </r>
       <r>   12.9171    0.0000 </r>
       <r>   13.4498    0.0000 </r>
      </set>
      <set comment="kpoint 35">
       <r>   -2.7132    1.0000 </r>
       <r>   -1.3174    1.0000 </r>
       <r>    2.9558    1.0000 </r>
       <r>    2.9558    1.0000 </r>
       <r>    6.3639    0.0000 </r>
       <r>    6.6898    0.0000 </r>
       <r>   15.2407    0.0000 </r>
       <r>   15.2407    0.0000 </r>
      </set>
      <set comment="kpoint 36">
       <r>   -2.0705    1.0000 </r>
       <r>   -1.9588    1.0000 </r>
       <r>    2.5162    1.0000 </r>
       <r>    2.9808    1.0000 </r>
       <r>    6.5446    0.0000 </r>
       <r>    7.1273    0.0000 </r>
       <r>   15.1721    0.0000 </r>
       <r>   15.4242    0.0000 </r>
      </set>
      <set comment="kpoint 37">
       <r>   -5.4456    1.0000 </r>
       <r>    2.7343    1.0000 </r>
       <r>    3.9312    1.0000 </r>
       <r>    4.9360    1.0000 </r>
       <r>    8.0909    0.0000 </r>
       <r>    9.3646    0.0000 </r>
       <r>   10.1228    0.0000 </r>
       <r>   10.5256    0.0000 </r>
      </set>
      <set comment="kpoint 38">
       <r>   -4.9353    1.0000 </r>
       <r>    1.4191    1.0000 </r>
       <r>    3.3711    1.0000 </r>
       <r>    4.6182    1.0000 </r>
       <r>    8.4026    0.0000 </r>
       <r>    9.3121    0.0000 </r>
       <r>   10.4446    0.0000 </r>
       <r>   10.6437    0.0000 </r>
      </set>
      <set comment="kpoint 39">
       <r>   -4.2804    1.0000 </r>
       <r>    0.0811    1.0000 </r>
       <r>    3.1152    1.0000 </r>
       <r>    4.2759    1.0000 </r>
       <r>    8.4378    0.0000 </r>
       <r>    9.1025    0.0000 </r>
       <r>   10.5453    0.0000 </r>
       <r>   11.4834    0.0000 </r>
      </set>
      <set comment="kpoint 40">
       <r>   -3.6694    1.0000 </r>
       <r>   -0.8957    1.0000 </r>
       <r>    3.0160    1.0000 </r>
       <r>    4.0662    1.0000 </r>
       <r>    8.4160    0.0000 </r>
       <r>    8.8955    0.0000 </r>
       <r>   10.4773    0.0000 </r>
       <r>   12.9491    0.0000 </r>
      </set>
      <set comment="kpoint 41">
       <r>   -4.7509    1.0000 </r>
       <r>    1.4487    1.0000 </r>
       <r>    3.2189    1.0000 </r>
       <r>    3.9335    1.0000 </r>
       <r>    7.5298    0.0000 </r>
       <r>    9.0551    0.0000 </r>
       <r>   10.7293    0.0000 </r>
       <r>   11.7715    0.0000 </r>
      </set>
      <set comment="kpoint 42">
       <r>   -4.1363    1.0000 </r>
       <r>    0.3722    1.0000 </r>
       <r>    2.6463    1.0000 </r>
       <r>    3.6213    1.0000 </r>
       <r>    7.8890    0.0000 </r>
       <r>    9.4663    0.0000 </r>
       <r>   10.4164    0.0000 </r>
       <r>   12.1601    0.0000 </r>
      </set>
      <set comment="kpoint 43">
       <r>   -3.4668    1.0000 </r>
       <r>   -0.6332    1.0000 </r>
       <r>    2.2625    1.0000 </r>
       <r>    3.4666    1.0000 </r>
       <r>    8.0214    0.0000 </r>
       <r>   10.0155    0.0000 </r>
       <r>   10.8373    0.0000 </r>
       <r>   12.1157    0.0000 </r>
      </set>
      <set comment="kpoint 44">
       <r>   -3.2016    1.0000 </r>
       <r>   -0.9809    1.0000 </r>
       <r>    2.0335    1.0000 </r>
       <r>    3.5559    1.0000 </r>
       <r>    8.2343    0.0000 </r>
       <r>    9.7530    0.0000 </r>
       <r>   12.0015    0.0000 </r>
       <r>   12.5118    0.0000 </r>
      </set>
      <set comment="kpoint 45">
       <r>   -3.7053    1.0000 </r>
       <r>   -0.2945    1.0000 </r>
       <r>    2.0229    1.0000 </r>
       <r>    3.8501    1.0000 </r>
       <r>    8.5961    0.0000 </r>
       <r>    9.5630    0.0000 </r>
       <r>   11.2946    0.0000 </r>
       <r>   11.9256    0.0000 </r>
      </set>
      <set comment="kpoint 46">
       <r>   -4.3774    1.0000 </r>
       <r>    0.6836    1.0000 </r>
       <r>    2.3988    1.0000 </r>
       <r>    4.2629    1.0000 </r>
       <r>    9.0362    0.0000 </r>
       <r>    9.1485    0.0000 </r>
       <r>   10.4030    0.0000 </r>
       <r>   11.4771    0.0000 </r>
      </set>
      <set comment="kpoint 47">
       <r>   -3.8044    1.0000 </r>
       <r>    0.0830    1.0000 </r>
       <r>    2.7456    1.0000 </r>
       <r>    3.1354    1.0000 </r>
       <r>    7.1725    0.0000 </r>
       <r>    8.0214    0.0000 </r>
       <r>   12.1057    0.0000 </r>
       <r>   13.5125    0.0000 </r>
      </set>
      <set comment="kpoint 48">
       <r>   -3.1271    1.0000 </r>
       <r>   -0.7366    1.0000 </r>
       <r>    2.1054    1.0000 </r>
       <r>    2.9581    1.0000 </r>
       <r>    7.5157    0.0000 </r>
       <r>    8.8360    0.0000 </r>
       <r>   11.7539    0.0000 </r>
       <r>   13.8775    0.0000 </r>
      </set>
      <set comment="kpoint 49">
       <r>   -2.6601    1.0000 </r>
       <r>   -1.2335    1.0000 </r>
       <r>    1.5862    1.0000 </r>
       <r>    3.0739    1.0000 </r>
       <r>    7.7300    0.0000 </r>
       <r>   10.4004    0.0000 </r>
       <r>   11.4556    0.0000 </r>
       <r>   13.0537    0.0000 </r>
      </set>
      <set comment="kpoint 50">
       <r>   -3.0449    1.0000 </r>
       <r>   -0.8344    1.0000 </r>
       <r>    1.4823    1.0000 </r>
       <r>    3.3957    1.0000 </r>
       <r>    8.1012    0.0000 </r>
       <r>   10.8203    0.0000 </r>
       <r>   11.5579    0.0000 </r>
       <r>   12.4451    0.0000 </r>
      </set>
      <set comment="kpoint 51">
       <r>   -2.6401    1.0000 </r>
       <r>   -1.3147    1.0000 </r>
       <r>    2.5550    1.0000 </r>
       <r>    2.6761    1.0000 </r>
       <r>    7.1024    0.0000 </r>
       <r>    7.3718    0.0000 </r>
       <r>   13.6347    0.0000 </r>
       <r>   15.0642    0.0000 </r>
      </set>
      <set comment="kpoint 52">
       <r>   -2.1373    1.0000 </r>
       <r>   -1.7599    1.0000 </r>
       <r>    1.8975    1.0000 </r>
       <r>    2.7483    1.0000 </r>
       <r>    7.3829    0.0000 </r>
       <r>    8.6298    0.0000 </r>
       <r>   13.1813    0.0000 </r>
       <r>   13.4122    0.0000 </r>
      </set>
      <set comment="kpoint 53">
       <r>   -3.4955    1.0000 </r>
       <r>   -0.3096    1.0000 </r>
       <r>    1.9917    1.0000 </r>
       <r>    3.1583    1.0000 </r>
       <r>    8.8269    0.0000 </r>
       <r>    9.4634    0.0000 </r>
       <r>   10.0479    0.0000 </r>
       <r>   13.4074    0.0000 </r>
      </set>
      <set comment="kpoint 54">
       <r>   -2.8637    1.0000 </r>
       <r>   -1.0079    1.0000 </r>
       <r>    1.7124    1.0000 </r>
       <r>    2.8395    1.0000 </r>
       <r>    9.1939    0.0000 </r>
       <r>    9.5586    0.0000 </r>
       <r>   10.8273    0.0000 </r>
       <r>   12.6918    0.0000 </r>
      </set>
      <set comment="kpoint 55">
       <r>   -2.4550    1.0000 </r>
       <r>   -1.3582    1.0000 </r>
       <r>    1.9423    1.0000 </r>
       <r>    2.3229    1.0000 </r>
       <r>    8.7433    0.0000 </r>
       <r>    8.9498    0.0000 </r>
       <r>   11.3451    0.0000 </r>
       <r>   12.9309    0.0000 </r>
      </set>
      <set comment="kpoint 56">
       <r>   -2.2561    1.0000 </r>
       <r>   -1.5223    1.0000 </r>
       <r>    1.6637    1.0000 </r>
       <r>    2.3594    1.0000 </r>
       <r>    9.0909    0.0000 </r>
       <r>   10.3652    0.0000 </r>
       <r>   11.1200    0.0000 </r>
       <r>   11.1253    0.0000 </r>
      </set>
     </set>
    </set>
   </array>
  </eigenvalues>
  <separator name="orbital magnetization" >
   <v name="MAGDIPOLOUT">      0.00000000      0.00000000      0.00000000</v>
  </separator>
  <dos>
   <i name="efermi">      5.82396482 </i>
   <total>
    <array>
     <dimension dim="1">gridpoints</dimension>
     <dimension dim="2">spin</dimension>
     <field>energy</field>
     <field>total</field>
     <field>integrated</field>
     <set>
      <set comment="spin 1">
       <r>    -7.2338     0.0000     0.0000 </r>
       <r>    -7.1547     0.0000     0.0000 </r>
       <r>    -7.0756     0.0000     0.0000 </r>
       <r>    -6.9965     0.0000     0.0000 </r>
       <r>    -6.9173     0.0000     0.0000 </r>
       <r>    -6.8382     0.0000     0.0000 </r>
       <r>    -6.7591     0.0000     0.0000 </r>
       <r>    -6.6800     0.0000     0.0000 </r>
       <r>    -6.6009     0.0000     0.0000 </r>
       <r>    -6.5217     0.0000     0.0000 </r>
       <r>    -6.4426     0.0000     0.0000 </r>
       <r>    -6.3635     0.0000     0.0000 </r>
       <r>    -6.2844     0.0000     0.0000 </r>
       <r>    -6.2052     0.0000     0.0000 </r>
       <r>    -6.1261     0.0090     0.0001 </r>
       <r>    -6.0470     0.1251     0.0045 </r>
       <r>    -5.9679     0.1292     0.0137 </r>
       <r>    -5.8887     0.1693     0.0255 </r>
       <r>    -5.8096     0.2039     0.0404 </r>
       <r>    -5.7305     0.2164     0.0570 </r>
       <r>    -5.6514     0.2405     0.0751 </r>
       <r>    -5.5723     0.2656     0.0951 </r>
       <r>    -5.4931     0.2918     0.1171 </r>
       <r>    -5.4140     0.3060     0.1408 </r>
       <r>    -5.3349     0.3224     0.1656 </r>
       <r>    -5.2558     0.3391     0.1918 </r>
       <r>    -5.1766     0.3581     0.2194 </r>
       <r>    -5.0975     0.3787     0.2485 </r>
       <r>    -5.0184     0.3994     0.2793 </r>
       <r>    -4.9393     0.4143     0.3115 </r>
       <r>    -4.8601     0.4305     0.3449 </r>
       <r>    -4.7810     0.4482     0.3797 </r>
       <r>    -4.7019     0.4664     0.4159 </r>
       <r>    -4.6228     0.4861     0.4535 </r>
       <r>    -4.5437     0.5075     0.4928 </r>
       <r>    -4.4645     0.5299     0.5339 </r>
       <r>    -4.3854     0.5518     0.5767 </r>
       <r>    -4.3063     0.5750     0.6213 </r>
       <r>    -4.2272     0.6018     0.6678 </r>
       <r>    -4.1480     0.6356     0.7167 </r>
       <r>    -4.0689     0.6753     0.7685 </r>
       <r>    -3.9898     0.7248     0.8237 </r>
       <r>    -3.9107     0.8327     0.8849 </r>
       <r>    -3.8315     0.8835     0.9535 </r>
       <r>    -3.7524     0.8584     1.0219 </r>
       <r>    -3.6733     0.9136     1.0948 </r>
       <r>    -3.5942     0.8386     1.1638 </r>
       <r>    -3.5150     0.8016     1.2284 </r>
       <r>    -3.4359     0.7844     1.2913 </r>
       <r>    -3.3568     0.7583     1.3523 </r>
       <r>    -3.2777     0.7312     1.4113 </r>
       <r>    -3.1986     0.7036     1.4680 </r>
       <r>    -3.1194     0.6692     1.5224 </r>
       <r>    -3.0403     0.6540     1.5748 </r>
       <r>    -2.9612     0.6322     1.6257 </r>
       <r>    -2.8821     0.6050     1.6747 </r>
       <r>    -2.8029     0.5723     1.7212 </r>
       <r>    -2.7238     0.5448     1.7654 </r>
       <r>    -2.6447     0.5213     1.8077 </r>
       <r>    -2.5656     0.5258     1.8491 </r>
       <r>    -2.4864     0.4729     1.8887 </r>
       <r>    -2.4073     0.4563     1.9249 </r>
       <r>    -2.3282     0.4052     1.9595 </r>
       <r>    -2.2491     0.2069     1.9878 </r>
       <r>    -2.1700     0.0672     1.9977 </r>
       <r>    -2.0908     0.0054     2.0000 </r>
       <r>    -2.0117     0.0000     2.0000 </r>
       <r>    -1.9326     0.0051     2.0001 </r>
       <r>    -1.8535     0.0264     2.0012 </r>
       <r>    -1.7743     0.0566     2.0045 </r>
       <r>    -1.6952     0.1225     2.0113 </r>
       <r>    -1.6161     0.2046     2.0242 </r>
       <r>    -1.5370     0.2971     2.0440 </r>
       <r>    -1.4578     0.5183     2.0800 </r>
       <r>    -1.3787     0.5146     2.1207 </r>
       <r>    -1.2996     0.5122     2.1613 </r>
       <r>    -1.2205     0.5764     2.2048 </r>
       <r>    -1.1414     0.6449     2.2527 </r>
       <r>    -1.0622     1.0398     2.3160 </r>
       <r>    -0.9831     1.6564     2.4177 </r>
       <r>    -0.9040     1.5436     2.5651 </r>
       <r>    -0.8249     1.1124     2.6642 </r>
       <r>    -0.7457     0.9483     2.7454 </r>
       <r>    -0.6666     0.8366     2.8156 </r>
       <r>    -0.5875     0.7687     2.8790 </r>
       <r>    -0.5084     0.7117     2.9375 </r>
       <r>    -0.4292     0.6601     2.9917 </r>
       <r>    -0.3501     0.6138     3.0421 </r>
       <r>    -0.2710     0.5572     3.0886 </r>
       <r>    -0.1919     0.5216     3.1312 </r>
       <r>    -0.1128     0.4966     3.1714 </r>
       <r>    -0.0336     0.4774     3.2099 </r>
       <r>     0.0455     0.4592     3.2470 </r>
       <r>     0.1246     0.4416     3.2826 </r>
       <r>     0.2037     0.4232     3.3168 </r>
       <r>     0.2829     0.4038     3.3496 </r>
       <r>     0.3620     0.3833     3.3807 </r>
       <r>     0.4411     0.3633     3.4102 </r>
       <r>     0.5202     0.3431     3.4382 </r>
       <r>     0.5994     0.3195     3.4644 </r>
       <r>     0.6785     0.3054     3.4890 </r>
       <r>     0.7576     0.2968     3.5129 </r>
       <r>     0.8367     0.2884     3.5360 </r>
       <r>     0.9159     0.2799     3.5585 </r>
       <r>     0.9950     0.2704     3.5803 </r>
       <r>     1.0741     0.2608     3.6013 </r>
       <r>     1.1532     0.2513     3.6215 </r>
       <r>     1.2323     0.2416     3.6410 </r>
       <r>     1.3115     0.2319     3.6598 </r>
       <r>     1.3906     0.2222     3.6777 </r>
       <r>     1.4697     0.3018     3.6960 </r>
       <r>     1.5488     0.6736     3.7353 </r>
       <r>     1.6280     0.9350     3.7987 </r>
       <r>     1.7071     1.3721     3.9000 </r>
       <r>     1.7862     1.1928     3.9961 </r>
       <r>     1.8653     1.1765     4.0897 </r>
       <r>     1.9445     1.1606     4.1850 </r>
       <r>     2.0236     1.1353     4.2741 </r>
       <r>     2.1027     1.0221     4.3601 </r>
       <r>     2.1818     0.9615     4.4383 </r>
       <r>     2.2609     0.9296     4.5129 </r>
       <r>     2.3401     1.1925     4.5881 </r>
       <r>     2.4192     1.0606     4.6777 </r>
       <r>     2.4983     1.0708     4.7612 </r>
       <r>     2.5774     1.1779     4.8518 </r>
       <r>     2.6566     1.2462     4.9459 </r>
       <r>     2.7357     1.3029     5.0497 </r>
       <r>     2.8148     1.3250     5.1518 </r>
       <r>     2.8939     1.4382     5.2608 </r>
       <r>     2.9731     1.7089     5.3825 </r>
       <r>     3.0522     1.5436     5.5050 </r>
       <r>     3.1313     1.6177     5.6283 </r>
       <r>     3.2104     1.4811     5.7499 </r>
       <r>     3.2895     1.4605     5.8663 </r>
       <r>     3.3687     1.4427     5.9811 </r>
       <r>     3.4478     1.4056     6.0937 </r>
       <r>     3.5269     1.4081     6.2049 </r>
       <r>     3.6060     1.3977     6.3162 </r>
       <r>     3.6852     1.3737     6.4259 </r>
       <r>     3.7643     1.3434     6.5334 </r>
       <r>     3.8434     1.3125     6.6384 </r>
       <r>     3.9225     1.2992     6.7415 </r>
       <r>     4.0017     1.3073     6.8444 </r>
       <r>     4.0808     1.3116     6.9483 </r>
       <r>     4.1599     1.2926     7.0513 </r>
       <r>     4.2390     1.2659     7.1527 </r>
       <r>     4.3182     1.2293     7.2513 </r>
       <r>     4.3973     1.2125     7.3478 </r>
       <r>     4.4764     1.1640     7.4428 </r>
       <r>     4.5555     1.0008     7.5291 </r>
       <r>     4.6346     0.8336     7.6012 </r>
       <r>     4.7138     0.7031     7.6610 </r>
       <r>     4.7929     0.6341     7.7138 </r>
       <r>     4.8720     0.5885     7.7621 </r>
       <r>     4.9511     0.5134     7.8056 </r>
       <r>     5.0303     0.4555     7.8439 </r>
       <r>     5.1094     0.3969     7.8776 </r>
       <r>     5.1885     0.3423     7.9068 </r>
       <r>     5.2676     0.2924     7.9319 </r>
       <r>     5.3468     0.2385     7.9530 </r>
       <r>     5.4259     0.1909     7.9699 </r>
       <r>     5.5050     0.1567     7.9835 </r>
       <r>     5.5841     0.1360     7.9950 </r>
       <r>     5.6632     0.0217     7.9993 </r>
       <r>     5.7424     0.0003     8.0000 </r>
       <r>     5.8215     0.0000     8.0000 </r>
       <r>     5.9006     0.0000     8.0000 </r>
       <r>     5.9797     0.0000     8.0000 </r>
       <r>     6.0589     0.0000     8.0000 </r>
       <r>     6.1380     0.0000     8.0000 </r>
       <r>     6.2171     0.0000     8.0000 </r>
       <r>     6.2962     0.0000     8.0000 </r>
       <r>     6.3754     0.0071     8.0000 </r>
       <r>     6.4545     0.0797     8.0035 </r>
       <r>     6.5336     0.1277     8.0119 </r>
       <r>     6.6127     0.1687     8.0236 </r>
       <r>     6.6918     0.2245     8.0391 </r>
       <r>     6.7710     0.2871     8.0594 </r>
       <r>     6.8501     0.3442     8.0844 </r>
       <r>     6.9292     0.4011     8.1138 </r>
       <r>     7.0083     0.4608     8.1479 </r>
       <r>     7.0875     0.5206     8.1867 </r>
       <r>     7.1666     0.5860     8.2305 </r>
       <r>     7.2457     0.6394     8.2791 </r>
       <r>     7.3248     0.6786     8.3312 </r>
       <r>     7.4040     0.7234     8.3865 </r>
       <r>     7.4831     0.8010     8.4470 </r>
       <r>     7.5622     0.8761     8.5132 </r>
       <r>     7.6413     0.9638     8.5859 </r>
       <r>     7.7204     1.0743     8.6663 </r>
       <r>     7.7996     1.2341     8.7571 </r>
       <r>     7.8787     1.4573     8.8643 </r>
       <r>     7.9578     1.5992     8.9853 </r>
       <r>     8.0369     1.7195     9.1162 </r>
       <r>     8.1161     1.9450     9.2617 </r>
       <r>     8.1952     2.0249     9.4197 </r>
       <r>     8.2743     2.0051     9.5804 </r>
       <r>     8.3534     1.7627     9.7315 </r>
       <r>     8.4326     1.3594     9.8568 </r>
       <r>     8.5117     1.0698     9.9525 </r>
       <r>     8.5908     0.9218    10.0300 </r>
       <r>     8.6699     0.8753    10.1011 </r>
       <r>     8.7491     0.8244    10.1684 </r>
       <r>     8.8282     0.7844    10.2319 </r>
       <r>     8.9073     0.8078    10.2939 </r>
       <r>     8.9864     1.0797    10.3672 </r>
       <r>     9.0655     2.0569    10.4899 </r>
       <r>     9.1447     2.3324    10.6635 </r>
       <r>     9.2238     2.3726    10.8470 </r>
       <r>     9.3029     2.0724    11.0224 </r>
       <r>     9.3820     2.0523    11.1898 </r>
       <r>     9.4612     1.8590    11.3440 </r>
       <r>     9.5403     1.6263    11.4788 </r>
       <r>     9.6194     1.5968    11.6058 </r>
       <r>     9.6985     1.5323    11.7300 </r>
       <r>     9.7777     1.3838    11.8462 </r>
       <r>     9.8568     1.2242    11.9489 </r>
       <r>     9.9359     1.1319    12.0417 </r>
       <r>    10.0150     1.0959    12.1295 </r>
       <r>    10.0941     1.1063    12.2164 </r>
       <r>    10.1733     1.0901    12.3035 </r>
       <r>    10.2524     1.0673    12.3887 </r>
       <r>    10.3315     1.0667    12.4730 </r>
       <r>    10.4106     1.2127    12.5612 </r>
       <r>    10.4898     1.4811    12.6906 </r>
       <r>    10.5689     1.3012    12.7977 </r>
       <r>    10.6480     1.2605    12.8990 </r>
       <r>    10.7271     1.0910    12.9938 </r>
       <r>    10.8063     1.0458    13.0779 </r>
       <r>    10.8854     1.1233    13.1629 </r>
       <r>    10.9645     1.1824    13.2548 </r>
       <r>    11.0436     1.1732    13.3478 </r>
       <r>    11.1227     1.2880    13.4430 </r>
       <r>    11.2019     1.2400    13.5433 </r>
       <r>    11.2810     1.1692    13.6378 </r>
       <r>    11.3601     1.1878    13.7324 </r>
       <r>    11.4392     1.1613    13.8254 </r>
       <r>    11.5184     1.1257    13.9153 </r>
       <r>    11.5975     1.0905    14.0039 </r>
       <r>    11.6766     1.0513    14.0887 </r>
       <r>    11.7557     1.0052    14.1701 </r>
       <r>    11.8349     0.9496    14.2475 </r>
       <r>    11.9140     0.8960    14.3203 </r>
       <r>    11.9931     0.8776    14.3903 </r>
       <r>    12.0722     0.8905    14.4602 </r>
       <r>    12.1514     0.8871    14.5303 </r>
       <r>    12.2305     0.9500    14.6028 </r>
       <r>    12.3096     1.0217    14.6808 </r>
       <r>    12.3887     1.0948    14.7645 </r>
       <r>    12.4678     1.1293    14.8538 </r>
       <r>    12.5470     1.1352    14.9440 </r>
       <r>    12.6261     1.0947    15.0324 </r>
       <r>    12.7052     1.0185    15.1163 </r>
       <r>    12.7843     0.9177    15.1929 </r>
       <r>    12.8635     0.8188    15.2616 </r>
       <r>    12.9426     0.7224    15.3226 </r>
       <r>    13.0217     0.6738    15.3776 </r>
       <r>    13.1008     0.6478    15.4297 </r>
       <r>    13.1800     0.6308    15.4802 </r>
       <r>    13.2591     0.6240    15.5299 </r>
       <r>    13.3382     0.6218    15.5791 </r>
       <r>    13.4173     0.6243    15.6284 </r>
       <r>    13.4964     0.6331    15.6782 </r>
       <r>    13.5756     0.5220    15.7241 </r>
       <r>    13.6547     0.4351    15.7618 </r>
       <r>    13.7338     0.3406    15.7926 </r>
       <r>    13.8129     0.2463    15.8158 </r>
       <r>    13.8921     0.2162    15.8338 </r>
       <r>    13.9712     0.2001    15.8503 </r>
       <r>    14.0503     0.1847    15.8655 </r>
       <r>    14.1294     0.1702    15.8795 </r>
       <r>    14.2086     0.1564    15.8924 </r>
       <r>    14.2877     0.1433    15.9043 </r>
       <r>    14.3668     0.1310    15.9151 </r>
       <r>    14.4459     0.1195    15.9251 </r>
       <r>    14.5250     0.1088    15.9341 </r>
       <r>    14.6042     0.0988    15.9423 </r>
       <r>    14.6833     0.0896    15.9497 </r>
       <r>    14.7624     0.0811    15.9565 </r>
       <r>    14.8415     0.0735    15.9626 </r>
       <r>    14.9207     0.0665    15.9681 </r>
       <r>    14.9998     0.0604    15.9731 </r>
       <r>    15.0789     0.0563    15.9777 </r>
       <r>    15.1580     0.0592    15.9823 </r>
       <r>    15.2372     0.0663    15.9897 </r>
       <r>    15.3163     0.0728    15.9950 </r>
       <r>    15.3954     0.0309    15.9995 </r>
       <r>    15.4745     0.0000    16.0000 </r>
       <r>    15.5537     0.0000    16.0000 </r>
       <r>    15.6328     0.0000    16.0000 </r>
       <r>    15.7119     0.0000    16.0000 </r>
       <r>    15.7910     0.0000    16.0000 </r>
       <r>    15.8701     0.0000    16.0000 </r>
       <r>    15.9493     0.0000    16.0000 </r>
       <r>    16.0284     0.0000    16.0000 </r>
       <r>    16.1075     0.0000    16.0000 </r>
       <r>    16.1866     0.0000    16.0000 </r>
       <r>    16.2658     0.0000    16.0000 </r>
       <r>    16.3449     0.0000    16.0000 </r>
       <r>    16.4240     0.0000    16.0000 </r>
       <r>    16.5031     0.0000    16.0000 </r>
      </set>
     </set>
    </array>
   </total>
  </dos>
 </calculation>
 <structure name="finalpos" >
  <crystal>
   <varray name="basis" >
    <v>       3.33357300       0.00000000       1.92463900 </v>
    <v>       1.11119100       3.14292400       1.92463900 </v>
    <v>       0.00000000       0.00000000       3.84927800 </v>
   </varray>
   <i name="volume">     40.32952685 </i>
   <varray name="rec_basis" >
    <v>       0.29997843      -0.10605835       0.00000000 </v>
    <v>       0.00000000       0.31817505       0.00000000 </v>
    <v>      -0.14998922      -0.10605835       0.25978898 </v>
   </varray>
  </crystal>
  <varray name="positions" >
   <v>       0.87500000       0.87500000       0.87500000 </v>
   <v>       0.12500000       0.12500000       0.12500000 </v>
  </varray>
 </structure>
</modeling>
